<UPF version="2.0.1">
<PP_INFO>
Generated by new atomic code, or converted to UPF format
Author:
Generation date:
Pseudopotential type: US
Element: N
Functional:  SLA  PW   PBE  PBE
Suggested minimum cutoff for wavefunctions:   0. Ry
Suggested minimum cutoff for charge density:   0. Ry
The Pseudo was generated with a Non-Relativistic Calculation
L component and cutoff radius for Local Potential:  0   0.0000
Valence configuration:
nl pn  l   occ       Rcut    Rcut US       E pseu
2S  0  0  2.00     10.000      1.100     0.000000
2P  0  1  3.00     10.000      1.100     0.000000
Generation configuration: not available.
</PP_INFO>
<!--
END OF HUMAN READABLE SECTION
-->
<PP_HEADER generated="Generated by new atomic code, or converted to UPF format" author="" date="" comment="" element="N " pseudo_type="US" relativistic="no" is_ultrasoft="true" is_paw="false" is_coulomb="false" has_so="false" has_wfc="false" has_gipaw="false" paw_as_gipaw="false" core_correction="false" functional=" SLA  PW   PBE  PBE" z_valence="5.000000000000e0" total_psenergy="-1.930116713812e1" wfc_cutoff="0.000000000000e0" rho_cutoff="0.000000000000e0" l_max="1" l_max_rho="0" l_local="0" mesh_size="729" number_of_wfc="2" number_of_proj="4"/>
<PP_MESH mesh="729" rmax="8.088824608400e1" zmesh="7.000000000000e0">
<PP_R>
0.000000000000000e0 6.052972725709999e-6 1.220941257260000e-5 1.847108816660000e-5
2.483979836600000e-5 3.131737277800000e-5 3.790567228440000e-5 4.460658957610001e-5
5.142204969710001e-5 5.835401059700001e-5 6.540446369430000e-5 7.257543444750000e-5
7.986898293780000e-5 8.728720446060001e-5 9.483223012730001e-5 1.025062274780000e-4
1.103114011030000e-4 1.182499932790000e-4 1.263242846080000e-4 1.345365946790000e-4
1.428892827300000e-4 1.513847483260000e-4 1.600254320500000e-4 1.688138162030000e-4
1.777524255170000e-4 1.868438278840000e-4 1.960906350850000e-4 2.054955035510000e-4
2.150611351180000e-4 2.247902778060000e-4 2.346857266100000e-4 2.447503243020000e-4
2.549869622450001e-4 2.653985812269999e-4 2.759881723050000e-4 2.867587776630000e-4
2.977134914880000e-4 3.088554608580000e-4 3.201878866440000e-4 3.317140244340000e-4
3.434371854620000e-4 3.553607375680000e-4 3.674881061560000e-4 3.798227751850000e-4
3.923682881670000e-4 4.051282491839999e-4 4.181063239269999e-4 4.313062407460000e-4
4.447317917199999e-4 4.583868337519999e-4 4.722752896699999e-4 4.864011493580001e-4
5.007684709040000e-4 5.153813817610001e-4 5.302440799340000e-4 5.453608351910000e-4
5.607359902810001e-4 5.763739621900000e-4 5.922792434040001e-4 6.084564032030000e-4
6.249100889710000e-4 6.416450275350000e-4 6.586660265180000e-4 6.759779757240000e-4
6.935858485399999e-4 7.114947033690000e-4 7.297096850770000e-4 7.482360264760000e-4
7.670790498260001e-4 7.862441683630000e-4 8.057368878540000e-4 8.255628081799999e-4
8.457276249450000e-4 8.662371311100001e-4 8.870972186600001e-4 9.083138802939999e-4
9.298932111480001e-4 9.518414105469999e-4 9.741647837830001e-4 9.968697439300000e-4
1.019962813680000e-3 1.043450627230000e-3 1.067339932180000e-3 1.091637591450000e-3
1.116350585300000e-3 1.141486013290000e-3 1.167051096340000e-3 1.193053178800000e-3
1.219499730580000e-3 1.246398349250000e-3 1.273756762260000e-3 1.301582829170000e-3
1.329884543850000e-3 1.358670036850000e-3 1.387947577680000e-3 1.417725577200000e-3
1.448012590070000e-3 1.478817317160000e-3 1.510148608070000e-3 1.542015463660000e-3
1.574427038680000e-3 1.607392644340000e-3 1.640921751020000e-3 1.675023990990000e-3
1.709709161160000e-3 1.744987225900000e-3 1.780868319920000e-3 1.817362751170000e-3
1.854481003790000e-3 1.892233741140000e-3 1.930631808850000e-3 1.969686237930000e-3
2.009408247970000e-3 2.049809250340000e-3 2.090900851460000e-3 2.132694856150000e-3
2.175203271020000e-3 2.218438307920000e-3 2.262412387440000e-3 2.307138142470000e-3
2.352628421870000e-3 2.398896294110000e-3 2.445955051050000e-3 2.493818211770000e-3
2.542499526420000e-3 2.592012980200000e-3 2.642372797370000e-3 2.693593445340000e-3
2.745689638800000e-3 2.798676343970000e-3 2.852568782930000e-3 2.907382437920000e-3
2.963133055840000e-3 3.019836652760000e-3 3.077509518540000e-3 3.136168221469999e-3
3.195829613070000e-3 3.256510832880000e-3 3.318229313470000e-3 3.381002785340001e-3
3.444849282110001e-3 3.509787145630000e-3 3.575835031310000e-3 3.643011913410000e-3
3.711337090560000e-3 3.780830191250000e-3 3.851511179520000e-3 3.923400360640001e-3
3.996518386980000e-3 4.070886263940000e-3 4.146525355960000e-3 4.223457392700000e-3
4.301704475240000e-3 4.381289082450000e-3 4.462234077450001e-3 4.544562714180000e-3
4.628298644050000e-3 4.713465922779999e-3 4.800089017280000e-3 4.888192812690000e-3
4.977802619520000e-3 5.068944180930000e-3 5.161643680150000e-3 5.255927747920000e-3
5.351823470259999e-3 5.449358396130000e-3 5.548560545440000e-3 5.649458417040000e-3
5.752080996940000e-3 5.856457766629999e-3 5.962618711530000e-3 6.070594329610000e-3
6.180415640200000e-3 6.292114192820000e-3 6.405722076320000e-3 6.521271928020001e-3
6.638796943180001e-3 6.758330884459999e-3 6.879908091630000e-3 7.003563491490000e-3
7.129332607840000e-3 7.257251571700001e-3 7.387357131730000e-3 7.519686664720000e-3
7.654278186410001e-3 7.791170362310000e-3 7.930402518920000e-3 8.072014654929999e-3
8.216047452769999e-3 8.362542290270001e-3 8.511541252570002e-3 8.663087144190001e-3
8.817223501319999e-3 8.973994604369999e-3 9.133445490620000e-3 9.295621967250000e-3
9.460570624409998e-3 9.628338848660000e-3 9.798974836560001e-3 9.972527608540000e-3
1.014904702290000e-2 1.032858379040000e-2 1.051118948830000e-2 1.069691657580000e-2
1.088581840860000e-2 1.107794925460000e-2 1.127336430930000e-2 1.147211971160000e-2
1.167427256020000e-2 1.187988092960000e-2 1.208900388700000e-2 1.230170150960000e-2
1.251803490130000e-2 1.273806621030000e-2 1.296185864750000e-2 1.318947650400000e-2
1.342098517020000e-2 1.365645115390000e-2 1.389594209990000e-2 1.413952680950000e-2
1.438727525970000e-2 1.463925862390000e-2 1.489554929210000e-2 1.515622089150000e-2
1.542134830820000e-2 1.569100770800000e-2 1.596527655890000e-2 1.624423365300000e-2
1.652795912940000e-2 1.681653449680000e-2 1.711004265730000e-2 1.740856793030000e-2
1.771219607610000e-2 1.802101432140000e-2 1.833511138360000e-2 1.865457749670000e-2
1.897950443710000e-2 1.930998555020000e-2 1.964611577660000e-2 1.998799168010000e-2
2.033571147510000e-2 2.068937505470000e-2 2.104908401960000e-2 2.141494170730000e-2
2.178705322150000e-2 2.216552546270000e-2 2.255046715880000e-2 2.294198889580000e-2
2.334020315060000e-2 2.374522432220000e-2 2.415716876560000e-2 2.457615482430000e-2
2.500230286490000e-2 2.543573531160000e-2 2.587657668100000e-2 2.632495361840000e-2
2.678099493380000e-2 2.724483163900000e-2 2.771659698530000e-2 2.819642650180000e-2
2.868445803430000e-2 2.918083178470000e-2 2.968569035160000e-2 3.019917877110000e-2
3.072144455860000e-2 3.125263775080000e-2 3.179291094920000e-2 3.234241936400000e-2
3.290132085830000e-2 3.346977599350000e-2 3.404794807600000e-2 3.463600320330000e-2
3.523411031230000e-2 3.584244122759999e-2 3.646117071090000e-2 3.709047651130000e-2
3.773053941600000e-2 3.838154330280000e-2 3.904367519239999e-2 3.971712530270000e-2
4.040208710270000e-2 4.109875736879999e-2 4.180733624070000e-2 4.252802727960000e-2
4.326103752600000e-2 4.400657755950000e-2 4.476486155950000e-2 4.553610736610000e-2
4.632053654340000e-2 4.711837444280000e-2 4.792985026760000e-2 4.875519713910000e-2
4.959465216350000e-2 5.044845650000001e-2 5.131685543000000e-2 5.220009842780000e-2
5.309843923199999e-2 5.401213591850000e-2 5.494145097470000e-2 5.588665137480000e-2
5.684800865660000e-2 5.782579899950000e-2 5.882030330359999e-2 5.983180727090000e-2
6.086060148680001e-2 6.190698150410000e-2 6.297124792740000e-2 6.405370649990000e-2
6.515466819109999e-2 6.627444928579999e-2 6.741337147549999e-2 6.857176195059999e-2
6.974995349420000e-2 7.094828457790001e-2 7.216709945910001e-2 7.340674827970000e-2
7.466758716679999e-2 7.594997833510000e-2 7.725429019060000e-2 7.858089743700001e-2
7.993018118290001e-2 8.130252905130000e-2 8.269833529120001e-2 8.411800089080000e-2
8.556193369250000e-2 8.703054851030000e-2 8.852426724880001e-2 9.004351902450001e-2
9.158874028900000e-2 9.316037495450001e-2 9.475887452120000e-2 9.638469820710000e-2
9.803831307990000e-2 9.972019419110000e-2 1.014308247130000e-1 1.031706960760000e-1
1.049403081110000e-1 1.067401691950000e-1 1.085707963920000e-1 1.104327156060000e-1
1.123264617310000e-1 1.142525788030000e-1 1.162116201580000e-1 1.182041485900000e-1
1.202307365160000e-1 1.222919661340000e-1 1.243884295950000e-1 1.265207291740000e-1
1.286894774380000e-1 1.308952974260000e-1 1.331388228290000e-1 1.354206981680000e-1
1.377415789810000e-1 1.401021320120000e-1 1.425030354030000e-1 1.449449788870000e-1
1.474286639870000e-1 1.499548042170000e-1 1.525241252890000e-1 1.551373653190000e-1
1.577952750400000e-1 1.604986180180000e-1 1.632481708720000e-1 1.660447234940000e-1
1.688890792810000e-1 1.717820553600000e-1 1.747244828270000e-1 1.777172069860000e-1
1.807610875880000e-1 1.838569990800000e-1 1.870058308590000e-1 1.902084875220000e-1
1.934658891320000e-1 1.967789714760000e-1 2.001486863380000e-1 2.035760017740000e-1
2.070619023830000e-1 2.106073895990000e-1 2.142134819700000e-1 2.178812154580000e-1
2.216116437310000e-1 2.254058384690000e-1 2.292648896710000e-1 2.331899059670000e-1
2.371820149400000e-1 2.412423634430000e-1 2.453721179380000e-1 2.495724648220000e-1
2.538446107740000e-1 2.581897830990000e-1 2.626092300810000e-1 2.671042213410000e-1
2.716760482030000e-1 2.763260240650000e-1 2.810554847750000e-1 2.858657890150000e-1
2.907583186930000e-1 2.957344793370000e-1 3.007957005030000e-1 3.059434361820000e-1
3.111791652170000e-1 3.165043917330000e-1 3.219206455650000e-1 3.274294826970000e-1
3.330324857110000e-1 3.387312642420000e-1 3.445274554390000e-1 3.504227244360000e-1
3.564187648280000e-1 3.625172991630000e-1 3.687200794300000e-1 3.750288875700000e-1
3.814455359810000e-1 3.879718680400000e-1 3.946097586380000e-1 4.013611147120000e-1
4.082278757960000e-1 4.152120145770001e-1 4.223155374640000e-1 4.295404851600000e-1
4.368889332540000e-1 4.443629928130000e-1 4.519648109880000e-1 4.596965716370000e-1
4.675604959430000e-1 4.755588430600000e-1 4.836939107580000e-1 4.919680360860000e-1
5.003835960380000e-1 5.089430082430000e-1 5.176487316540000e-1 5.265032672570000e-1
5.355091587880000e-1 5.446689934659999e-1 5.539854027350000e-1 5.634610630180000e-1
5.730986964890000e-1 5.829010718539999e-1 5.928710051450000e-1 6.030113605320000e-1
6.133250511420000e-1 6.238150399000000e-1 6.344843403750000e-1 6.453360176510000e-1
6.563731892060000e-1 6.675990258050000e-1 6.790167524130000e-1 6.906296491240001e-1
7.024410520960000e-1 7.144543545179999e-1 7.266730075790000e-1 7.391005214620000e-1
7.517404663500001e-1 7.645964734560000e-1 7.776722360610000e-1 7.909715105789999e-1
8.044981176349999e-1 8.182559431600001e-1 8.322489395120000e-1 8.464811266080000e-1
8.609565930790000e-1 8.756794974480000e-1 8.906540693190001e-1 9.058846105979999e-1
9.213754967240000e-1 9.371311779290000e-1 9.531561805160001e-1 9.694551081569999e-1
9.860326432190000e-1 1.002893548110000e0 1.020042666630000e0 1.037484925410000e0
1.055225335250000e0 1.073268992640000e0 1.091621081180000e0 1.110286873050000e0
1.129271730590000e0 1.148581107770000e0 1.168220551800000e0 1.188195704720000e0
1.208512305010000e0 1.229176189220000e0 1.250193293690000e0 1.271569656230000e0
1.293311417860000e0 1.315424824550000e0 1.337916229080000e0 1.360792092770000e0
1.384058987430000e0 1.407723597180000e0 1.431792720410000e0 1.456273271710000e0
1.481172283870000e0 1.506496909890000e0 1.532254425050000e0 1.558452228980000e0
1.585097847810000e0 1.612198936310000e0 1.639763280090000e0 1.667798797860000e0
1.696313543680000e0 1.725315709290000e0 1.754813626430000e0 1.784815769310000e0
1.815330756950000e0 1.846367355710000e0 1.877934481810000e0 1.910041203880000e0
1.942696745550000e0 1.975910488140000e0 2.009691973300000e0 2.044050905800000e0
2.078997156300000e0 2.114540764190000e0 2.150691940440000e0 2.187461070600000e0
2.224858717720000e0 2.262895625430000e0 2.301582720990000e0 2.340931118460000e0
2.380952121870000e0 2.421657228480000e0 2.463058132070000e0 2.505166726340000e0
2.547995108250000e0 2.591555581580000e0 2.635860660410000e0 2.680923072730000e0
2.726755764100000e0 2.773371901360000e0 2.820784876430000e0 2.869008310140000e0
2.918056056150000e0 2.967942204930000e0 3.018681087790000e0 3.070287281050000e0
3.122775610160000e0 3.176161154000000e0 3.230459249200000e0 3.285685494570000e0
3.341855755520000e0 3.398986168700000e0 3.457093146550000e0 3.516193382100000e0
3.576303853690000e0 3.637441829910000e0 3.699624874500000e0 3.762870851450000e0
3.827197930120000e0 3.892624590420000e0 3.959169628160000e0 4.026852160460000e0
4.095691631180000e0 4.165707816590000e0 4.236920830970000e0 4.309351132440000e0
4.383019528840000e0 4.457947183650000e0 4.534155622160000e0 4.611666737560000e0
4.690502797310000e0 4.770686449470000e0 4.852240729260000e0 4.935189065650000e0
5.019555288080000e0 5.105363633350000e0 5.192638752520000e0 5.281405718050000e0
5.371690030970000e0 5.463517628220000e0 5.556914890080000e0 5.651908647800000e0
5.748526191220000e0 5.846795276710000e0 5.946744135080000e0 6.048401479680000e0
6.151796514720000e0 6.256958943580000e0 6.363918977390000e0 6.472707343710000e0
6.583355295330000e0 6.695894619260000e0 6.810357645860000e0 6.926777258170000e0
7.045186901260000e0 7.165620591950000e0 7.288112928510000e0 7.412699100600000e0
7.539414899440000e0 7.668296728010000e0 7.799381611570000e0 7.932707208270000e0
8.068311819970001e0 8.206234403260000e0 8.346514580619999e0 8.489192651840000e0
8.634309605569999e0 8.781907131090000e0 8.932027630320000e0 9.084714229970000e0
9.240010793960000e0 9.397961935970001e0 9.558613032309999e0 9.722010234940001e0
9.888200484710000e0 1.005723152490000e1 1.022915191470000e1 1.040401104380000e1
1.058185914550000e1 1.076274731240000e1 1.094672751010000e1 1.113385259240000e1
1.132417631690000e1 1.151775335980000e1 1.171463933220000e1 1.191489079540000e1
1.211856527800000e1 1.232572129150000e1 1.253641834800000e1 1.275071697670000e1
1.296867874130000e1 1.319036625810000e1 1.341584321360000e1 1.364517438290000e1
1.387842564860000e1 1.411566401910000e1 1.435695764850000e1 1.460237585570000e1
1.485198914460000e1 1.510586922440000e1 1.536408902980000e1 1.562672274240000e1
1.589384581180000e1 1.616553497730000e1 1.644186828980000e1 1.672292513470000e1
1.700878625410000e1 1.729953377040000e1 1.759525120980000e1 1.789602352600000e1
1.820193712520000e1 1.851307989050000e1 1.882954120710000e1 1.915141198820000e1
1.947878470110000e1 1.981175339370000e1 2.015041372140000e1 2.049486297480000e1
2.084520010740000e1 2.120152576430000e1 2.156394231110000e1 2.193255386300000e1
2.230746631490000e1 2.268878737190000e1 2.307662658020000e1 2.347109535850000e1
2.387230703010000e1 2.428037685520000e1 2.469542206450000e1 2.511756189240000e1
2.554691761150000e1 2.598361256740001e1 2.642777221410000e1 2.687952415020000e1
2.733899815500000e1 2.780632622680000e1 2.828164261970000e1 2.876508388310000e1
2.925678890010000e1 2.975689892810000e1 3.026555763910000e1 3.078291116090000e1
3.130910811910000e1 3.184429968000000e1 3.238863959370000e1 3.294228423850000e1
3.350539266580000e1 3.407812664580000e1 3.466065071390000e1 3.525313221790000e1
3.585574136640000e1 3.646865127730000e1 3.709203802770000e1 3.772608070460000e1
3.837096145620000e1 3.902686554420000e1 3.969398139730000e1 4.037250066480000e1
4.106261827220000e1 4.176453247700000e1 4.247844492550001e1 4.320456071100000e1
4.394308843240000e1 4.469424025460000e1 4.545823196880000e1 4.623528305520000e1
4.702561674540000e1 4.782946008710001e1 4.864704400880001e1 4.947860338660000e1
5.032437711150000e1 5.118460815780001e1 5.205954365330000e1 5.294943495000000e1
5.385453769650001e1 5.477511191120001e1 5.571142205750000e1 5.666373711890000e1
5.763233067720001e1 5.861748099070001e1 5.961947107380000e1 6.063858877910000e1
6.167512687920000e1 6.272938315150000e1 6.380166046350000e1 6.489226685960000e1
6.600151565000001e1 6.712972550040000e1 6.827722052370000e1 6.944433037290000e1
7.063139033610000e1 7.183874143280001e1 7.306673051140000e1 7.431571034950000e1
7.558603975490001e1 7.687808366860001e1 7.819221326980001e1 7.952880608250000e1
8.088824608400001e1
</PP_R>
<PP_RAB>
6.001821251010000e-6 6.104414009070000e-6 6.208760447149999e-6 6.314890541970000e-6
6.422834782629999e-6 6.532624179450000e-6 6.644290272780000e-6 6.757865142130002e-6
6.873381415370000e-6 6.990872278080000e-6 7.110371483110000e-6 7.231913360290000e-6
7.355532826230000e-6 7.481265394409999e-6 7.609147185370001e-6 7.739214937070001e-6
7.871506015469999e-6 8.006058425220001e-6 8.142910820640001e-6 8.282102516760002e-6
8.423673500669999e-6 8.567664442969999e-6 8.714116709479999e-6 8.863072373089999e-6
9.014574225880001e-6 9.168665791410000e-6 9.325391337200001e-6 9.484795887470002e-6
9.646925236050002e-6 9.811825959580002e-6 9.979545430840000e-6 1.015013183240000e-5
1.032363417040000e-5 1.050010228870000e-5 1.067958688330000e-5 1.086213951650000e-5
1.104781263220000e-5 1.123665957060000e-5 1.142873458400000e-5 1.162409285160000e-5
1.182279049610000e-5 1.202488459960000e-5 1.223043321980000e-5 1.243949540670000e-5
1.265213121990000e-5 1.286840174570000e-5 1.308836911420000e-5 1.331209651790000e-5
1.353964822930000e-5 1.377108961970000e-5 1.400648717760000e-5 1.424590852830000e-5
1.448942245280000e-5 1.473709890800000e-5 1.498900904650000e-5 1.524522523730000e-5
1.550582108630000e-5 1.577087145760000e-5 1.604045249510000e-5 1.631464164430000e-5
1.659351767420000e-5 1.687716070080000e-5 1.716565220890000e-5 1.745907507680000e-5
1.775751359910000e-5 1.806105351150000e-5 1.836978201500000e-5 1.868378780150000e-5
1.900316107860000e-5 1.932799359610000e-5 1.965837867230000e-5 1.999441122020000e-5
2.033618777550000e-5 2.068380652410000e-5 2.103736733000000e-5 2.139697176450000e-5
2.176272313490000e-5 2.213472651450000e-5 2.251308877270000e-5 2.289791860569999e-5
2.328932656770000e-5 2.368742510240000e-5 2.409232857610000e-5 2.450415330950000e-5
2.492301761200000e-5 2.534904181520000e-5 2.578234830750000e-5 2.622306156970000e-5
2.667130820990000e-5 2.712721700090000e-5 2.759091891650000e-5 2.806254716910001e-5
2.854223724850000e-5 2.903012696030000e-5 2.952635646580000e-5 3.003106832220000e-5
3.054440752340000e-5 3.106652154190001e-5 3.159756037079999e-5 3.213767656730000e-5
3.268702529650000e-5 3.324576437540000e-5 3.381405431920000e-5 3.439205838640000e-5
3.497994262650000e-5 3.557787592730000e-5 3.618603006330001e-5 3.680457974550000e-5
3.743370267130000e-5 3.807357957540000e-5 3.872439428230000e-5 3.938633375820000e-5
4.005958816570000e-5 4.074435091770000e-5 4.144081873329999e-5 4.214919169420001e-5
4.286967330220000e-5 4.360247053780000e-5 4.434779391950000e-5 4.510585756410001e-5
4.587687924879999e-5 4.666108047320000e-5 4.745868652310000e-5 4.826992653520001e-5
4.909503356309999e-5 4.993424464419999e-5 5.078780086750000e-5 5.165594744320000e-5
5.253893377300000e-5 5.343701352180000e-5 5.435044469050000e-5 5.527948969030000e-5
5.622441541770000e-5 5.718549333169999e-5 5.816299953140001e-5 5.915721483530000e-5
6.016842486230001e-5 6.119692011350000e-5 6.224299605550000e-5 6.330695320590001e-5
6.438909721899999e-5 6.548973897360000e-5 6.660919466299999e-5 6.774778588509999e-5
6.890583973500002e-5 7.008368889939999e-5 7.128167175140002e-5 7.250013244830001e-5
7.373942103030000e-5 7.499989352109999e-5 7.628191203000000e-5 7.758584485609998e-5
7.891206659399998e-5 8.026095824170000e-5 8.163290730960002e-5 8.302830793200000e-5
8.444756098070002e-5 8.589107417950000e-5 8.735926222180000e-5 8.885254688980000e-5
9.037135717500000e-5 9.191612940239999e-5 9.348730735520000e-5 9.508534240230000e-5
9.671069362820001e-5 9.836382796499999e-5 1.000452203260000e-4 1.017553537430000e-4
1.034947195040000e-4 1.052638172960000e-4 1.070631553450000e-4 1.088932505660000e-4
1.107546287120000e-4 1.126478245190000e-4 1.145733818670000e-4 1.165318539290000e-4
1.185238033390000e-4 1.205498023430000e-4 1.226104329740000e-4 1.247062872090000e-4
1.268379671470000e-4 1.290060851780000e-4 1.312112641620000e-4 1.334541376020000e-4
1.357353498340000e-4 1.380555562050000e-4 1.404154232670000e-4 1.428156289620000e-4
1.452568628230000e-4 1.477398261710000e-4 1.502652323120000e-4 1.528338067460000e-4
1.554462873750000e-4 1.581034247150000e-4 1.608059821090000e-4 1.635547359500000e-4
1.663504759020000e-4 1.691940051270000e-4 1.720861405150000e-4 1.750277129210000e-4
1.780195674020000e-4 1.810625634610000e-4 1.841575752900000e-4 1.873054920260000e-4
1.905072180070000e-4 1.937636730240000e-4 1.970757925950000e-4 2.004445282280000e-4
2.038708476950000e-4 2.073557353110000e-4 2.109001922180000e-4 2.145052366690000e-4
2.181719043230000e-4 2.219012485440000e-4 2.256943406990000e-4 2.295522704710000e-4
2.334761461690000e-4 2.374670950450000e-4 2.415262636230000e-4 2.456548180220000e-4
2.498539442970000e-4 2.541248487750000e-4 2.584687584050000e-4 2.628869211070000e-4
2.673806061350001e-4 2.719511044370000e-4 2.765997290290001e-4 2.813278153700000e-4
2.861367217490000e-4 2.910278296710000e-4 2.960025442570000e-4 3.010622946460000e-4
3.062085344060000e-4 3.114427419530000e-4 3.167664209730000e-4 3.221811008560000e-4
3.276883371350000e-4 3.332897119320000e-4 3.389868344140000e-4 3.447813412530000e-4
3.506748971000000e-4 3.566691950599999e-4 3.627659571770001e-4 3.689669349340000e-4
3.752739097509999e-4 3.816886935010000e-4 3.882131290260000e-4 3.948490906720000e-4
4.015984848200000e-4 4.084632504420000e-4 4.154453596510000e-4 4.225468182730000e-4
4.297696664189999e-4 4.371159790750000e-4 4.445878666920000e-4 4.521874757999999e-4
4.599169896200000e-4 4.677786286909999e-4 4.757746515100000e-4 4.839073551800000e-4
4.921790760690000e-4 5.005921904830001e-4 5.091491153460000e-4 5.178523088980000e-4
5.267042713960000e-4 5.357075458400001e-4 5.448647186960001e-4 5.541784206410001e-4
5.636513273229999e-4 5.732861601240000e-4 5.830856869460000e-4 5.930527230020001e-4
6.031901316290000e-4 6.135008251090000e-4 6.239877655040001e-4 6.346539655099999e-4
6.455024893180000e-4 6.565364535010000e-4 6.677590279029999e-4 6.791734365510001e-4
6.907829585850001e-4 7.025909291960000e-4 7.146007405850002e-4 7.268158429389999e-4
7.392397454200000e-4 7.518760171749999e-4 7.647282883600002e-4 7.778002511850000e-4
7.910956609699999e-4 8.046183372309999e-4 8.183721647690001e-4 8.323610947950000e-4
8.465891460559998e-4 8.610604059960000e-4 8.757790319289999e-4 8.907492522310001e-4
9.059753675560000e-4 9.214617520729998e-4 9.372128547199999e-4 9.532332004850000e-4
9.695273917020000e-4 9.861001093770000e-4 1.002956114530000e-3 1.020100249570000e-3
1.037537439670000e-3 1.055272694200000e-3 1.073311108160000e-3 1.091657863620000e-3
1.110318231270000e-3 1.129297571860000e-3 1.148601337790000e-3 1.168235074650000e-3
1.188204422850000e-3 1.208515119180000e-3 1.229172998520000e-3 1.250183995480000e-3
1.271554146110000e-3 1.293289589640000e-3 1.315396570240000e-3 1.337881438830000e-3
1.360750654860000e-3 1.384010788220000e-3 1.407668521100000e-3 1.431730649910000e-3
1.456204087230000e-3 1.481095863800000e-3 1.506413130550000e-3 1.532163160650000e-3
1.558353351570000e-3 1.584991227260000e-3 1.612084440250000e-3 1.639640773910000e-3
1.667668144640000e-3 1.696174604150000e-3 1.725168341800000e-3 1.754657686940000e-3
1.784651111270000e-3 1.815157231340000e-3 1.846184810950000e-3 1.877742763730000e-3
1.909840155670000e-3 1.942486207740000e-3 1.975690298500000e-3 2.009461966850000e-3
2.043810914740000e-3 2.078747009960000e-3 2.114280288970000e-3 2.150420959790000e-3
2.187179404940000e-3 2.224566184410000e-3 2.262592038700000e-3 2.301267891890000e-3
2.340604854830000e-3 2.380614228240000e-3 2.421307506050000e-3 2.462696378660000e-3
2.504792736280001e-3 2.547608672380000e-3 2.591156487160000e-3 2.635448691060000e-3
2.680498008360000e-3 2.726317380880000e-3 2.772919971620000e-3 2.820319168610000e-3
2.868528588719999e-3 2.917562081580000e-3 2.967433733580000e-3 3.018157871860000e-3
3.069749068500000e-3 3.122222144650000e-3 3.175592174789999e-3 3.229874491120000e-3
3.285084687890000e-3 3.341238625920000e-3 3.398352437150000e-3 3.456442529280000e-3
3.515525590460000e-3 3.575618594110000e-3 3.636738803800000e-3 3.698903778170000e-3
3.762131376010000e-3 3.826439761410000e-3 3.891847408900000e-3 3.958373108840000e-3
4.026035972770000e-3 4.094855438940001e-3 4.164851277830000e-3 4.236043597899999e-3
4.308452851330000e-3 4.382099839880000e-3 4.457005720930000e-3 4.533192013470001e-3
4.610680604360001e-3 4.689493754560000e-3 4.769654105569999e-3 4.851184685910001e-3
4.934108917740000e-3 5.018450623580000e-3 5.104234033170000e-3 5.191483790430000e-3
5.280224960520000e-3 5.370483037070001e-3 5.462283949470001e-3 5.555654070350000e-3
5.650620223130000e-3 5.747209689770001e-3 5.845450218530001e-3 5.945370032030000e-3
6.046997835280000e-3 6.150362824010001e-3 6.255494692950001e-3 6.362423644480000e-3
6.471180397189999e-3 6.581796194820000e-3 6.694302815120000e-3 6.808732579090000e-3
6.925118360170001e-3 7.043493593750000e-3 7.163892286730000e-3 7.286349027350001e-3
7.410898995049999e-3 7.537577970620001e-3 7.666422346480001e-3 7.797469137129999e-3
7.930755989770000e-3 8.066321195150000e-3 8.204203698510000e-3 8.344443110840000e-3
8.487079720199999e-3 8.632154503330000e-3 8.779709137420001e-3 8.929786012039999e-3
9.082428241390000e-3 9.237679676610000e-3 9.395584918450000e-3 9.556189330029998e-3
9.719539049880000e-3 9.885681005209999e-3 1.005466292540000e-2 1.022653335570000e-2
1.040134167110000e-2 1.057913809070000e-2 1.075997369200000e-2 1.094390042550000e-2
1.113097112980000e-2 1.132123954680000e-2 1.151476033670000e-2 1.171158909450000e-2
1.191178236530000e-2 1.211539766050000e-2 1.232249347510000e-2 1.253312930370000e-2
1.274736565770000e-2 1.296526408320000e-2 1.318688717820000e-2 1.341229861070000e-2
1.364156313710000e-2 1.387474662060000e-2 1.411191605030000e-2 1.435313956040000e-2
1.459848644970000e-2 1.484802720170000e-2 1.510183350460000e-2 1.535997827210000e-2
1.562253566400000e-2 1.588958110820000e-2 1.616119132150000e-2 1.643744433240000e-2
1.671841950290000e-2 1.700419755190000e-2 1.729486057770000e-2 1.759049208240000e-2
1.789117699500000e-2 1.819700169650000e-2 1.850805404460000e-2 1.882442339840000e-2
1.914620064470000e-2 1.947347822410000e-2 1.980635015690000e-2 2.014491207080000e-2
2.048926122810000e-2 2.083949655370000e-2 2.119571866340000e-2 2.155802989290000e-2
2.192653432730000e-2 2.230133783060000e-2 2.268254807680000e-2 2.307027458010000e-2
2.346462872690000e-2 2.386572380740000e-2 2.427367504860000e-2 2.468859964680000e-2
2.511061680210000e-2 2.553984775160000e-2 2.597641580510000e-2 2.642044638030000e-2
2.687206703840000e-2 2.733140752140000e-2 2.779859978890000e-2 2.827377805620000e-2
2.875707883280000e-2 2.924864096170000e-2 2.974860565910000e-2 3.025711655530000e-2
3.077431973560000e-2 3.130036378240000e-2 3.183539981800000e-2 3.237958154800000e-2
3.293306530520001e-2 3.349601009480000e-2 3.406857763980000e-2 3.465093242800000e-2
3.524324175859999e-2 3.584567579050000e-2 3.645840759140000e-2 3.708161318730000e-2
3.771547161320000e-2 3.836016496420000e-2 3.901587844830000e-2 3.968280043930000e-2
4.036112253090000e-2 4.105103959210000e-2 4.175274982249999e-2 4.246645481000000e-2
4.319235958820000e-2 4.393067269550000e-2 4.468160623500000e-2 4.544537593539999e-2
4.622220121280000e-2 4.701230523420000e-2 4.781591498120000e-2 4.863326131520001e-2
4.946457904420000e-2 5.031010698950000e-2 5.117008805499999e-2 5.204476929660000e-2
5.293440199340001e-2 5.383924171950000e-2 5.475954841789999e-2 5.569558647490000e-2
5.664762479620000e-2 5.761593688390000e-2 5.860080091540000e-2 5.960249982290000e-2
6.062132137540001e-2 6.165755826029999e-2 6.271150816870000e-2 6.378347387980000e-2
6.487376334870000e-2 6.598268979440000e-2 6.711057179009999e-2 6.825773335439999e-2
6.942450404470001e-2 7.061121905160000e-2 7.181821929529999e-2 7.304585152370001e-2
7.429446841170000e-2 7.556442866279999e-2 7.685609711210000e-2 7.816984483080001e-2
7.950604923330000e-2 8.086509418520000e-2 8.224737011389999e-2 8.365327412039999e-2
8.508321009390000e-2 8.653758882709999e-2 8.801682813510002e-2 8.952135297460000e-2
9.105159556649999e-2 9.260799551980000e-2 9.419099995830001e-2 9.580106364830000e-2
9.743864913010000e-2 9.910422685029999e-2 1.007982752970000e-1 1.025212811380000e-1
1.042737393590000e-1 1.060561534070000e-1 1.078690353360000e-1 1.097129059520000e-1
1.115882949620000e-1 1.134957411310000e-1 1.154357924290000e-1 1.174090061970000e-1
1.194159493000000e-1 1.214571982950000e-1 1.235333395930000e-1 1.256449696280000e-1
1.277926950320000e-1 1.299771328040000e-1 1.321989104920000e-1 1.344586663680000e-1
1.367570496170000e-1 1.390947205210000e-1 1.414723506450000e-1 1.438906230390000e-1
1.463502324240000e-1 1.488518853990000e-1 1.513963006400000e-1 1.539842091090000e-1
1.566163542610000e-1 1.592934922610000e-1 1.620163921990000e-1 1.647858363120000e-1
1.676026202060000e-1 1.704675530900000e-1 1.733814580030000e-1 1.763451720540000e-1
1.793595466610000e-1 1.824254477950000e-1 1.855437562290000e-1 1.887153677950000e-1
1.919411936330000e-1 1.952221604630000e-1 1.985592108410000e-1 2.019533034380000e-1
2.054054133120000e-1 2.089165321860000e-1 2.124876687370000e-1 2.161198488830000e-1
2.198141160800000e-1 2.235715316190000e-1 2.273931749330000e-1 2.312801439050000e-1
2.352335551870000e-1 2.392545445180000e-1 2.433442670500000e-1 2.475038976810000e-1
2.517346313920000e-1 2.560376835910000e-1 2.604142904620000e-1 2.648657093200000e-1
2.693932189710000e-1 2.739981200800000e-1 2.786817355470000e-1 2.834454108850000e-1
2.882905146030000e-1 2.932184386080000e-1 2.982305985970000e-1 3.033284344650000e-1
3.085134107230000e-1 3.137870169140000e-1 3.191507680430000e-1 3.246062050110000e-1
3.301548950610000e-1 3.357984322230000e-1 3.415384377770000e-1 3.473765607160000e-1
3.533144782170000e-1 3.593538961320000e-1 3.654965494670000e-1 3.717442028890000e-1
3.780986512260000e-1 3.845617199890000e-1 3.911352658920000e-1 3.978211773890000e-1
4.046213752120000e-1 4.115378129260000e-1 4.185724774900000e-1 4.257273898280000e-1
4.330046054060000e-1 4.404062148280000e-1 4.479343444340000e-1 4.555911569090000e-1
4.633788519070000e-1 4.712996666820001e-1 4.793558767320000e-1 4.875497964490000e-1
4.958837797880000e-1 5.043602209419999e-1 5.129815550270001e-1 5.217502587860000e-1
5.306688512980000e-1 5.397398947020000e-1 5.489659949340000e-1 5.583498024730000e-1
5.678940131059999e-1 5.776013686990000e-1 5.874746579890000e-1 5.975167173800000e-1
6.077304317609999e-1 6.181187353349999e-1 6.286846124610000e-1 6.394310985100001e-1
6.503612807400000e-1 6.614782991809999e-1 6.727853475380000e-1 6.842856741060000e-1
6.959825827060000e-1 7.078794336350001e-1 7.199796446270001e-1 7.322866918380000e-1
7.448041108460000e-1 7.575354976620000e-1 7.704845097680000e-1 7.836548671640000e-1
7.970503534380001e-1 8.106748168559999e-1 8.245321714610000e-1 8.386263982039999e-1
8.529615460830000e-1 8.675417333090000e-1 8.823711484870000e-1 8.974540518210000e-1
9.127947763380000e-1 9.283977291310000e-1 9.442673926259999e-1 9.604083258700001e-1
9.768251658419999e-1 9.935226287820001e-1 1.010505511550000e0 1.027778692990000e0
1.045347135370000e0 1.063215885740000e0 1.081390077470000e0 1.099874931640000e0
1.118675758600000e0 1.137797959460000e0 1.157247027650000e0 1.177028550510000e0
1.197148210910000e0 1.217611788820000e0 1.238425163030000e0 1.259594312830000e0
1.281125319700000e0 1.303024369090000e0 1.325297752160000e0 1.347951867630000e0
1.370993223580000e0
</PP_RAB>
</PP_MESH>
<PP_LOCAL columns="4">
-2.410938883380000e1 -2.410938883380000e1 -2.410938880290000e1 -2.410938880500000e1
-2.410938881380000e1 -2.410938882310000e1 -2.410938883470000e1 -2.410938884860000e1
-2.410938886500000e1 -2.410938888410000e1 -2.410938890590000e1 -2.410938893070000e1
-2.410938895850000e1 -2.410938898950000e1 -2.410938902380000e1 -2.410938906170000e1
-2.410938910310000e1 -2.410938914850000e1 -2.410938919780000e1 -2.410938925130000e1
-2.410938930920000e1 -2.410938937160000e1 -2.410938943880000e1 -2.410938951090000e1
-2.410938958830000e1 -2.410938967100000e1 -2.410938975950000e1 -2.410938985380000e1
-2.410938995420000e1 -2.410939006110000e1 -2.410939017460000e1 -2.410939029500000e1
-2.410939042280000e1 -2.410939055800000e1 -2.410939070120000e1 -2.410939085250000e1
-2.410939101230000e1 -2.410939118110000e1 -2.410939135900000e1 -2.410939154660000e1
-2.410939174420000e1 -2.410939195220000e1 -2.410939217110000e1 -2.410939240120000e1
-2.410939264300000e1 -2.410939289710000e1 -2.410939316380000e1 -2.410939344370000e1
-2.410939373730000e1 -2.410939404520000e1 -2.410939436780000e1 -2.410939470590000e1
-2.410939505990000e1 -2.410939543060000e1 -2.410939581850000e1 -2.410939622440000e1
-2.410939664890000e1 -2.410939709280000e1 -2.410939755680000e1 -2.410939804160000e1
-2.410939854820001e1 -2.410939907720000e1 -2.410939962960000e1 -2.410940020640000e1
-2.410940080830000e1 -2.410940143630000e1 -2.410940209150001e1 -2.410940277490000e1
-2.410940348750000e1 -2.410940423050000e1 -2.410940500500000e1 -2.410940581210000e1
-2.410940665320000e1 -2.410940752940000e1 -2.410940844210000e1 -2.410940939270001e1
-2.410941038260000e1 -2.410941141320000e1 -2.410941248600000e1 -2.410941360270000e1
-2.410941476480000e1 -2.410941597400000e1 -2.410941723210000e1 -2.410941854090000e1
-2.410941990230000e1 -2.410942131800000e1 -2.410942279030000e1 -2.410942432120000e1
-2.410942591280000e1 -2.410942756730000e1 -2.410942928700000e1 -2.410943107440000e1
-2.410943293180000e1 -2.410943486190000e1 -2.410943686740000e1 -2.410943895080000e1
-2.410944111510000e1 -2.410944336320000e1 -2.410944569810000e1 -2.410944812300000e1
-2.410945064130000e1 -2.410945325610000e1 -2.410945597090000e1 -2.410945878950000e1
-2.410946171560000e1 -2.410946475290000e1 -2.410946790560000e1 -2.410947117780000e1
-2.410947457370000e1 -2.410947809780000e1 -2.410948175460000e1 -2.410948554890000e1
-2.410948948580000e1 -2.410949357010000e1 -2.410949780730000e1 -2.410950220260000e1
-2.410950676190000e1 -2.410951149080000e1 -2.410951639550000e1 -2.410952148210000e1
-2.410952675730000e1 -2.410953222750000e1 -2.410953789970000e1 -2.410954378110000e1
-2.410954987900000e1 -2.410955620120000e1 -2.410956275560000e1 -2.410956955020000e1
-2.410957659360000e1 -2.410958389450000e1 -2.410959146210000e1 -2.410959930550000e1
-2.410960743470000e1 -2.410961585940000e1 -2.410962459020000e1 -2.410963363780000e1
-2.410964301300000e1 -2.410965272760000e1 -2.410966279320000e1 -2.410967322220000e1
-2.410968402710000e1 -2.410969522110000e1 -2.410970681770000e1 -2.410971883080000e1
-2.410973127500000e1 -2.410974416500000e1 -2.410975751650000e1 -2.410977134530000e1
-2.410978566790000e1 -2.410980050130000e1 -2.410981586320000e1 -2.410983177180000e1
-2.410984824570000e1 -2.410986530450000e1 -2.410988296820000e1 -2.410990125750000e1
-2.410992019380000e1 -2.410993979930000e1 -2.410996009660000e1 -2.410998110940000e1
-2.411000286210000e1 -2.411002537980000e1 -2.411004868830000e1 -2.411007281450000e1
-2.411009778600000e1 -2.411012363140000e1 -2.411015038010000e1 -2.411017806240000e1
-2.411020670970000e1 -2.411023635440000e1 -2.411026702990000e1 -2.411029877040000e1
-2.411033161150000e1 -2.411036558990000e1 -2.411040074310000e1 -2.411043711020000e1
-2.411047473120000e1 -2.411051364740000e1 -2.411055390140000e1 -2.411059553700000e1
-2.411063859940000e1 -2.411068313510000e1 -2.411072919220000e1 -2.411077681970000e1
-2.411082606860000e1 -2.411087699110000e1 -2.411092964090000e1 -2.411098407320000e1
-2.411104034510000e1 -2.411109851490000e1 -2.411115864270000e1 -2.411122079020000e1
-2.411128502100000e1 -2.411135140000000e1 -2.411141999430000e1 -2.411149087230000e1
-2.411156410470000e1 -2.411163976360000e1 -2.411171792310000e1 -2.411179865900000e1
-2.411188204910000e1 -2.411196817320000e1 -2.411205711260000e1 -2.411214895070000e1
-2.411224377290000e1 -2.411234166610000e1 -2.411244271950000e1 -2.411254702400000e1
-2.411265467230000e1 -2.411276575860000e1 -2.411288037970000e1 -2.411299863320000e1
-2.411312061930000e1 -2.411324643880000e1 -2.411337619520000e1 -2.411350999260000e1
-2.411364793710000e1 -2.411379013570000e1 -2.411393669710000e1 -2.411408773040000e1
-2.411424334650000e1 -2.411440365610000e1 -2.411456877170000e1 -2.411473880510000e1
-2.411491386920000e1 -2.411509407610000e1 -2.411527953870000e1 -2.411547036800000e1
-2.411566667550000e1 -2.411586857060000e1 -2.411607616190000e1 -2.411628955510000e1
-2.411650885500000e1 -2.411673416190000e1 -2.411696557450000e1 -2.411720318610000e1
-2.411744708700000e1 -2.411769736110000e1 -2.411795408800000e1 -2.411821733930000e1
-2.411848718090000e1 -2.411876366910001e1 -2.411904685300000e1 -2.411933676970000e1
-2.411963344740000e1 -2.411993690010000e1 -2.412024713080000e1 -2.412056412570000e1
-2.412088785720000e1 -2.412121827830000e1 -2.412155532540000e1 -2.412189891210000e1
-2.412224893210000e1 -2.412260525270000e1 -2.412296771780000e1 -2.412333614030000e1
-2.412371030610000e1 -2.412408996530000e1 -2.412447483610000e1 -2.412486459610000e1
-2.412525888580000e1 -2.412565729910000e1 -2.412605938730000e1 -2.412646464870000e1
-2.412687253260000e1 -2.412728242850000e1 -2.412769366970000e1 -2.412810552190000e1
-2.412851718740000e1 -2.412892779200000e1 -2.412933639010000e1 -2.412974195010000e1
-2.413014336030000e1 -2.413053941310000e1 -2.413092881070000e1 -2.413131014880000e1
-2.413168192280000e1 -2.413204250980000e1 -2.413239017560000e1 -2.413272305560000e1
-2.413303916190000e1 -2.413333636370000e1 -2.413361239450000e1 -2.413386483100000e1
-2.413409110190000e1 -2.413428846500000e1 -2.413445401670000e1 -2.413458466820000e1
-2.413467715610000e1 -2.413472801690000e1 -2.413473359880000e1 -2.413469003570000e1
-2.413459325960000e1 -2.413443897320001e1 -2.413422266490000e1 -2.413393957940000e1
-2.413358473450000e1 -2.413315289070000e1 -2.413263857030000e1 -2.413203602590000e1
-2.413133926130000e1 -2.413054199890000e1 -2.412963770410000e1 -2.412861955130000e1
-2.412748045060000e1 -2.412621301310000e1 -2.412480958150000e1 -2.412326219370000e1
-2.412156261710000e1 -2.411970231120000e1 -2.411767246590000e1 -2.411546396320000e1
-2.411306741910000e1 -2.411047314450000e1 -2.410767119210000e1 -2.410465131480001e1
-2.410140301870000e1 -2.409791551920000e1 -2.409417779920000e1 -2.409017856320000e1
-2.408590630120000e1 -2.408134924070000e1 -2.407649541560000e1 -2.407133261540000e1
-2.406584846050000e1 -2.406003034820000e1 -2.405386553300000e1 -2.404734106910000e1
-2.404044389720000e1 -2.403316078180000e1 -2.402547840430000e1 -2.401738329470000e1
-2.400886193090000e1 -2.399990066430000e1 -2.399048582530000e1 -2.398060364120000e1
-2.397024034880000e1 -2.395938210300000e1 -2.394801509710000e1 -2.393612546090000e1
-2.392369938870000e1 -2.391072302610000e1 -2.389718260580000e1 -2.388306432210000e1
-2.386835447470000e1 -2.385303933010000e1 -2.383710527340000e1 -2.382053865590000e1
-2.380332595550000e1 -2.378545360840000e1 -2.376690818030000e1 -2.374767618030000e1
-2.372774424320000e1 -2.370709892490000e1 -2.368572689670000e1 -2.366361472060000e1
-2.364074905690000e1 -2.361711641790000e1 -2.359270338980000e1 -2.356749636260000e1
-2.354148176820000e1 -2.351464578440000e1 -2.348697459030000e1 -2.345845404240000e1
-2.342906994810000e1 -2.339880771160000e1 -2.336765262770000e1 -2.333558949360000e1
-2.330260292420000e1 -2.326867692810000e1 -2.323379524540000e1 -2.319794088400000e1
-2.316109648200000e1 -2.312324380160000e1 -2.308436411830000e1 -2.304443766860000e1
-2.300344406910000e1 -2.296136171490000e1 -2.291816823300000e1 -2.287383982910000e1
-2.282835177960000e1 -2.278167772560000e1 -2.273379021000000e1 -2.268465991920000e1
-2.263425627210000e1 -2.258254661100000e1 -2.252949685340000e1 -2.247507063350000e1
-2.241923002870000e1 -2.236193465570000e1 -2.230314248450000e1 -2.224280889350000e1
-2.218088758500000e1 -2.211732960370000e1 -2.205208436750000e1 -2.198509865190000e1
-2.191631774920000e1 -2.184568441960000e1 -2.177314018880000e1 -2.169862426320000e1
-2.162207497290000e1 -2.154342864470000e1 -2.146262119320000e1 -2.137958694230000e1
-2.129426036400000e1 -2.120657483440000e1 -2.111646451920000e1 -2.102386304770000e1
-2.092870554120000e1 -2.083092718940000e1 -2.073046541330000e1 -2.062725832500000e1
-2.052124701250000e1 -2.041237385370000e1 -2.030058489510000e1 -2.018582797200000e1
-2.006805512040000e1 -1.994722041980000e1 -1.982328232580000e1 -1.969620109760000e1
-1.956594086970000e1 -1.943246646660000e1 -1.929574497650000e1 -1.915574174080000e1
-1.901242122170000e1 -1.886574209890000e1 -1.871565749180000e1 -1.856210958240000e1
-1.840502997020000e1 -1.824433525690000e1 -1.807992955710000e1 -1.791170388770000e1
-1.773954411900000e1 -1.756333774190000e1 -1.738299009930000e1 -1.719843984760000e1
-1.700968165930000e1 -1.681678456170000e1 -1.661991038670000e1 -1.641932018820000e1
-1.621537137710000e1 -1.600849662740000e1 -1.579916968630000e1 -1.558785620070000e1
-1.537495906610000e1 -1.516076270460000e1 -1.494538727440000e1 -1.472875873090000e1
-1.451060337280000e1 -1.429047099600000e1 -1.406779289360000e1 -1.384198037500000e1
-1.361258175060000e1 -1.337952734140000e1 -1.314372960100000e1 -1.290823136110000e1
-1.267634151430000e1 -1.244776182930000e1 -1.222066025440000e1 -1.199504794980000e1
-1.177163159450000e1 -1.155094709940000e1 -1.133359154930000e1 -1.112022062520000e1
-1.091154970860000e1 -1.070836207720000e1 -1.051151096360000e1 -1.032192887960000e1
-1.014063031190000e1 -9.968818119380000e0 -9.801519651370000e0 -9.636997245170001e0
-9.475203439620000e0 -9.316094936760001e0 -9.159635952870000e0 -9.005807347070000e0
-8.854552815750001e0 -8.705797126580000e0 -8.559529315540001e0 -8.415720064820000e0
-8.274312905160000e0 -8.135272737699999e0 -7.998560983460000e0 -7.864139798060000e0
-7.731971815430000e0 -7.602020172820000e0 -7.474248492540000e0 -7.348620901310000e0
-7.225102018800000e0 -7.103656971390000e0 -6.984251384530000e0 -6.866851391530000e0
-6.751423627740000e0 -6.637935235270000e0 -6.526353857870000e0 -6.416647642340000e0
-6.308785233530000e0 -6.202735773210000e0 -6.098468894800000e0 -5.995954720510000e0
-5.895163855620000e0 -5.796067384220000e0 -5.698636863230000e0 -5.602844317220000e0
-5.508662232100000e0 -5.416063549320000e0 -5.325021659360000e0 -5.235510395560000e0
-5.147504027500000e0 -5.060977254600000e0 -4.975905199480000e0 -4.892263401460000e0
-4.810027809980000e0 -4.729174778090000e0 -4.649681055940000e0 -4.571523784380000e0
-4.494680488510000e0 -4.419129071440000e0 -4.344847807950000e0 -4.271815338410000e0
-4.200010662590000e0 -4.129413133700000e0 -4.060002452410000e0 -3.991758661070000e0
-3.924662137830000e0 -3.858693591090000e0 -3.793834053800000e0 -3.730064878030000e0
-3.667367729540000e0 -3.605724582440000e0 -3.545117713980000e0 -3.485529699450000e0
-3.426943407030000e0 -3.369341992970000e0 -3.312708896610000e0 -3.257027835710000e0
-3.202282801660000e0 -3.148458054990000e0 -3.095538120740000e0 -3.043507784160000e0
-2.992352086230000e0 -2.942056319520000e0 -2.892606023880000e0 -2.843986982380000e0
-2.796185217230000e0 -2.749186985860000e0 -2.702978776890000e0 -2.657547306360000e0
-2.612879513910000e0 -2.568962559020000e0 -2.525783817340000e0 -2.483330877080000e0
-2.441591535400000e0 -2.400553794910000e0 -2.360205860200000e0 -2.320536134420000e0
-2.281533215900000e0 -2.243185894880000e0 -2.205483150240000e0 -2.168414146260000e0
-2.131968229520000e0 -2.096134925780000e0 -2.060903936950000e0 -2.026265138120000e0
-1.992208574570000e0 -1.958724458970000e0 -1.925803168490000e0 -1.893435242050000e0
-1.861611377590000e0 -1.830322429390000e0 -1.799559405440000e0 -1.769313464850000e0
-1.739575915330000e0 -1.710338210680000e0 -1.681591948340000e0 -1.653328866960000e0
-1.625540844090000e0 -1.598219893780000e0 -1.571358164330000e0 -1.544947936040000e0
-1.518981618970000e0 -1.493451750790000e0 -1.468350994620000e0 -1.443672136920000e0
-1.419408085440000e0 -1.395551867180000e0 -1.372096626360000e0 -1.349035622480000e0
-1.326362228370000e0 -1.304069928280000e0 -1.282152316030000e0 -1.260603093150000e0
-1.239416067050000e0 -1.218585149280000e0 -1.198104353780000e0 -1.177967795090000e0
-1.158169686750000e0 -1.138704339580000e0 -1.119566160030000e0 -1.100749648640000e0
-1.082249398390000e0 -1.064060093160000e0 -1.046176506230000e0 -1.028593498760000e0
-1.011306018290000e0 -9.943090973210001e-1 -9.775978518610000e-1 -9.611674800350000e-1
-9.450132607010000e-1 -9.291305520870001e-1 -9.135147904589999e-1 -8.981614888090000e-1
-8.830662355639999e-1 -8.682246933180000e-1 -8.536325975820001e-1 -8.392857555590000e-1
-8.251800449399999e-1 -8.113114127170000e-1 -7.976758742030000e-1 -7.842695111230000e-1
-7.710884716760001e-1 -7.581289685920000e-1 -7.453872782630000e-1 -7.328597396799999e-1
-7.205427533749999e-1 -7.084327803910000e-1 -6.965263412580000e-1 -6.848200149980000e-1
-6.733104381380000e-1 -6.619943037470000e-1 -6.508683604790000e-1 -6.399294116440000e-1
-6.291743142870000e-1 -6.185999782810000e-1 -6.082033654460000e-1 -5.979814886680001e-1
-5.879314110460000e-1 -5.780502450429999e-1 -5.683351516600000e-1 -5.587833396180000e-1
-5.493920645550000e-1 -5.401586282410000e-1 -5.310803777949999e-1 -5.221547049310001e-1
-5.133790452040000e-1 -5.047508772700001e-1 -4.962677221700000e-1 -4.879271426090000e-1
-4.797267422580000e-1 -4.716641650700000e-1 -4.637370945960000e-1 -4.559432532120001e-1
-4.482804034690000e-1 -4.407463403000000e-1 -4.333389009540000e-1 -4.260559572210000e-1
-4.188954166600000e-1 -4.118552220030000e-1 -4.049333505570000e-1 -3.981278136330000e-1
-3.914366559630000e-1 -3.848579551460000e-1 -3.783898210930000e-1 -3.720303954840000e-1
-3.657778512320000e-1 -3.596303919630000e-1 -3.535862514940000e-1 -3.476436933280000e-1
-3.418010101570000e-1 -3.360565233680000e-1 -3.304085825620000e-1 -3.248555650800000e-1
-3.193958755370000e-1 -3.140279453620000e-1 -3.087502323490000e-1 -3.035612202120000e-1
-2.984594181520000e-1 -2.934433604270000e-1 -2.885116059290000e-1 -2.836627377730000e-1
-2.788953628880000e-1 -2.742081116180000e-1 -2.695996373270000e-1 -2.650686160140000e-1
-2.606137459290000e-1 -2.562337472030000e-1 -2.519273614790000e-1 -2.476933515470000e-1
-2.435305009950000e-1 -2.394376138540000e-1 -2.354135142550000e-1 -2.314570460950000e-1
-2.275670727010000e-1 -2.237424765030000e-1 -2.199821587180000e-1 -2.162850390270000e-1
-2.126500552700000e-1 -2.090761631390000e-1 -2.055623358780000e-1 -2.021075639880000e-1
-1.987108549370000e-1 -1.953712328750000e-1 -1.920877383520000e-1 -1.888594280460000e-1
-1.856853744870000e-1 -1.825646657960000e-1 -1.794964054170000e-1 -1.764797118660000e-1
-1.735137184720000e-1 -1.705975731300000e-1 -1.677304380580000e-1 -1.649114895540000e-1
-1.621399177600000e-1 -1.594149264280000e-1 -1.567357326970000e-1 -1.541015668580000e-1
-1.515116721410000e-1 -1.489653044970000e-1 -1.464617323800000e-1 -1.440002365390000e-1
-1.415801098130000e-1 -1.392006569240000e-1 -1.368611942810000e-1 -1.345610497830000e-1
-1.322995626230000e-1 -1.300760831020000e-1 -1.278899724390000e-1 -1.257406025890000e-1
-1.236273560640000e-1
</PP_LOCAL>
<PP_NONLOCAL>
<PP_BETA.1 index="1" label="2S" angular_momentum="0" cutoff_radius_index="499" cutoff_radius="1.000000000000e1" ultrasoft_cutoff_radius="1.100000000000e0">
0.000000000000000e0 -2.729902449570000e-5 -5.506359730920001e-5 -8.330654159070001e-5
-1.120265448940000e-4 -1.412428466660000e-4 -1.709531936440000e-4 -2.011802848669999e-4
-2.319135136870000e-4 -2.631752461080000e-4 -2.949786707940000e-4 -3.273160713930000e-4
-3.602114557970000e-4 -3.936671331539999e-4 -4.276982996560000e-4 -4.623008162440000e-4
-4.975126449800000e-4 -5.333070589830000e-4 -5.697283350180000e-4 -6.067618597130000e-4
-6.444372685279999e-4 -6.827464816099999e-4 -7.217238382360001e-4 -7.613491407810001e-4
-8.016742594410001e-4 -8.426689456450001e-4 -8.843776502959999e-4 -9.267828518800002e-4
-9.699423778100000e-4 -1.013805810790000e-3 -1.058440286700000e-3 -1.103834528080000e-3
-1.149997468130000e-3 -1.196958082070000e-3 -1.244708569050000e-3 -1.293299148230000e-3
-1.342691932170000e-3 -1.392950821070000e-3 -1.444062706680000e-3 -1.496034579250000e-3
-1.548912689840000e-3 -1.602692601060000e-3 -1.657379596450000e-3 -1.713017313510000e-3
-1.769592518390000e-3 -1.827139106140000e-3 -1.885676758710000e-3 -1.945202480360000e-3
-2.005762657230000e-3 -2.067331568760000e-3 -2.129980009460000e-3 -2.193687942770000e-3
-2.258477024610000e-3 -2.324389673510000e-3 -2.391419564750000e-3 -2.459596631530000e-3
-2.528931359200000e-3 -2.599475306980001e-3 -2.671185852630000e-3 -2.744163012910000e-3
-2.818368601560000e-3 -2.893839764460000e-3 -2.970605276250000e-3 -3.048674892160000e-3
-3.128099051430000e-3 -3.208860732240000e-3 -3.291016438790000e-3 -3.374564578360000e-3
-3.459550246490000e-3 -3.545985198260000e-3 -3.633898500600000e-3 -3.723312942480001e-3
-3.814250372490000e-3 -3.906761002260000e-3 -4.000829899919999e-3 -4.096521829450000e-3
-4.193842954550001e-3 -4.292827859100000e-3 -4.393513431510000e-3 -4.495905136990000e-3
-4.600058284409999e-3 -4.705987577880000e-3 -4.813727955520000e-3 -4.923311232280000e-3
-5.034768077130000e-3 -5.148124435170001e-3 -5.263427441920000e-3 -5.380696863930000e-3
-5.499960166980000e-3 -5.621284012519999e-3 -5.744667877980000e-3 -5.870157591730000e-3
-5.997801002359999e-3 -6.127620681800000e-3 -6.259664098630000e-3 -6.393964422240001e-3
-6.530549669940000e-3 -6.669482839540000e-3 -6.810785935529999e-3 -6.954503149829999e-3
-7.100674108770000e-3 -7.249351413300000e-3 -7.400563469960000e-3 -7.554366361410001e-3
-7.710785856890000e-3 -7.869895344420000e-3 -8.031710408900000e-3 -8.196301703510001e-3
-8.363697136359999e-3 -8.533960095859999e-3 -8.707133802080001e-3 -8.883261459510001e-3
-9.062404018790000e-3 -9.244611927250000e-3 -9.429922962699999e-3 -9.618415243610000e-3
-9.810114430690000e-3 -1.000510513540000e-2 -1.020341857110000e-2 -1.040512386930000e-2
-1.061027647830000e-2 -1.081893863310000e-2 -1.103116102650000e-2 -1.124701854320000e-2
-1.146656209320000e-2 -1.168985024200000e-2 -1.191696585680000e-2 -1.214795958500000e-2
-1.238289793700000e-2 -1.262185648590000e-2 -1.286489559320000e-2 -1.311208910390000e-2
-1.336350898790000e-2 -1.361922301010000e-2 -1.387931167340000e-2 -1.414383988490000e-2
-1.441289130630000e-2 -1.468654414140000e-2 -1.496487082100000e-2 -1.524794895580000e-2
-1.553587691490000e-2 -1.582871447660000e-2 -1.612656066920000e-2 -1.642949914040000e-2
-1.673760945930000e-2 -1.705099080140000e-2 -1.736972151070000e-2 -1.769390416040000e-2
-1.802362393060000e-2 -1.835897800140000e-2 -1.870006431880000e-2 -1.904697747770000e-2
-1.939982025210000e-2 -1.975868902300000e-2 -2.012369446470000e-2 -2.049493432540000e-2
-2.087251525160000e-2 -2.125655346490000e-2 -2.164714789330000e-2 -2.204442027930000e-2
-2.244847749180000e-2 -2.285944021910000e-2 -2.327742247800000e-2 -2.370254955730000e-2
-2.413493527640000e-2 -2.457471029720000e-2 -2.502200003790000e-2 -2.547692771590000e-2
-2.593962968150000e-2 -2.641023670770000e-2 -2.688887939520000e-2 -2.737570129940000e-2
-2.787083855430000e-2 -2.837443445480000e-2 -2.888662995650000e-2 -2.940757423070000e-2
-2.993741942510000e-2 -3.047631108690000e-2 -3.102440808170000e-2 -3.158186561520000e-2
-3.214884266660000e-2 -3.272550398390000e-2 -3.331201099920000e-2 -3.390853568680000e-2
-3.451524333560000e-2 -3.513231470400000e-2 -3.575991949910000e-2 -3.639824067930000e-2
-3.704746031550000e-2 -3.770776458990000e-2 -3.837933832730000e-2 -3.906238026010000e-2
-3.975707953030000e-2 -4.046363776290000e-2 -4.118225568750001e-2 -4.191313940030000e-2
-4.265649536510000e-2 -4.341253825210000e-2 -4.418148337800000e-2 -4.496354914920000e-2
-4.575895841159999e-2 -4.656793989040001e-2 -4.739072191740000e-2 -4.822754189510000e-2
-4.907863348450000e-2 -4.994424594530001e-2 -5.082461834770000e-2 -5.172000808599999e-2
-5.263066439889999e-2 -5.355684940640000e-2 -5.449882748290000e-2 -5.545686402080000e-2
-5.643123004170000e-2 -5.742220939490000e-2 -5.843007298330000e-2 -5.945511690050001e-2
-6.049762518730000e-2 -6.155789750060000e-2 -6.263623253200000e-2 -6.373293495650000e-2
-6.484831890209999e-2 -6.598269630850000e-2 -6.713639124369999e-2 -6.830972665600000e-2
-6.950303769890000e-2 -7.071665834070000e-2 -7.195093516709999e-2 -7.320621136560001e-2
-7.448284480800000e-2 -7.578119369520000e-2 -7.710162342049999e-2 -7.844450710180000e-2
-7.981022044300000e-2 -8.119914801449999e-2 -8.261168010800001e-2 -8.404821221930002e-2
-8.550914804220000e-2 -8.699489640820001e-2 -8.850587163699998e-2 -9.004249889450000e-2
-9.160520400030002e-2 -9.319442656349999e-2 -9.481060724680001e-2 -9.645419590700000e-2
-9.812565080860001e-2 -9.982543679520001e-2 -1.015540230700000e-1 -1.033118912160000e-1
-1.050995273770000e-1 -1.069174240840000e-1 -1.087660849070000e-1 -1.106460197380000e-1
-1.125577446690000e-1 -1.145017855080000e-1 -1.164786772420000e-1 -1.184889590710000e-1
-1.205331844000000e-1 -1.226119073880000e-1 -1.247256975480000e-1 -1.268751294140000e-1
-1.290607863120000e-1 -1.312832606760000e-1 -1.335431534560000e-1 -1.358410753690000e-1
-1.381776443260000e-1 -1.405534892260000e-1 -1.429692451020000e-1 -1.454255600040000e-1
-1.479230874340000e-1 -1.504624931980000e-1 -1.530444488460000e-1 -1.556696401790000e-1
-1.583387568850000e-1 -1.610525026970000e-1 -1.638115882170000e-1 -1.666167338350000e-1
-1.694686711780000e-1 -1.723681389890000e-1 -1.753158874380000e-1 -1.783126760690000e-1
-1.813592724090000e-1 -1.844564563160000e-1 -1.876050141180000e-1 -1.908057454330000e-1
-1.940594552800000e-1 -1.973669612520000e-1 -2.007290893340000e-1 -2.041466742910000e-1
-2.076205615740000e-1 -2.111516046150000e-1 -2.147406663980000e-1 -2.183886190320000e-1
-2.220963436680000e-1 -2.258647293560000e-1 -2.296946748960000e-1 -2.335870864910000e-1
-2.375428793660000e-1 -2.415629756280000e-1 -2.456483063710000e-1 -2.497998098800000e-1
-2.540184309520000e-1 -2.583051217660000e-1 -2.626608417230000e-1 -2.670865554570000e-1
-2.715832343450000e-1 -2.761518544500000e-1 -2.807933979660000e-1 -2.855088503870000e-1
-2.902992024070000e-1 -2.951654482620000e-1 -3.001085841860000e-1 -3.051296100830000e-1
-3.102295273070000e-1 -3.154093379100000e-1 -3.206700451790000e-1 -3.260126514530000e-1
-3.314381587660000e-1 -3.369475660830000e-1 -3.425418712850000e-1 -3.482220673190000e-1
-3.539891425020000e-1 -3.598440804460000e-1 -3.657878572020000e-1 -3.718214414190000e-1
-3.779457925890000e-1 -3.841618601640000e-1 -3.904705819820000e-1 -3.968728832040000e-1
-4.033696747540000e-1 -4.099618516050000e-1 -4.166502924810000e-1 -4.234358565120000e-1
-4.303193825930000e-1 -4.373016883010000e-1 -4.443835673190000e-1 -4.515657865250001e-1
-4.588490877360000e-1 -4.662341814980000e-1 -4.737217479110000e-1 -4.813124341860000e-1
-4.890068511350000e-1 -4.968055732090000e-1 -5.047091347609999e-1 -5.127180280969999e-1
-5.208327016399999e-1 -5.290535580620000e-1 -5.373809497020000e-1 -5.458151799570000e-1
-5.543564970340000e-1 -5.630050940549999e-1 -5.717611069629999e-1 -5.806246088860000e-1
-5.895956121890000e-1 -5.986740632140000e-1 -6.078598401290000e-1 -6.171527525760000e-1
-6.265525369270000e-1 -6.360588561440000e-1 -6.456712970120000e-1 -6.553893673430000e-1
-6.652124962580000e-1 -6.751400296709999e-1 -6.851712314320000e-1 -6.953052801410000e-1
-7.055412684649999e-1 -7.158782021920000e-1 -7.263149995819999e-1 -7.368504900670000e-1
-7.474834147140000e-1 -7.582124256600000e-1 -7.690360862130000e-1 -7.799528718239999e-1
-7.909611699950000e-1 -8.020592818650000e-1 -8.132454233739999e-1 -8.245177265000001e-1
-8.358742413540000e-1 -8.473129379790000e-1 -8.588317085929999e-1 -8.704283697430000e-1
-8.821006649130000e-1 -8.938462667630001e-1 -9.056627792550000e-1 -9.175477403440000e-1
-9.294986224580001e-1 -9.415128351720000e-1 -9.535877247240000e-1 -9.657205737520000e-1
-9.779085999439999e-1 -9.901489526719999e-1 -1.002438707910000e0 -1.014774861670000e0
-1.027154319060000e0 -1.039573882240000e0 -1.052030232920000e0 -1.064519911330000e0
-1.077039289970000e0 -1.089584541210000e0 -1.102151598480000e0 -1.114736109270000e0
-1.127333380390000e0 -1.139938312160000e0 -1.152545322420000e0 -1.165148258400000e0
-1.177740294290000e0 -1.190313814260000e0 -1.202860279310000e0 -1.215370075610000e0
-1.227832344160000e0 -1.240234788880000e0 -1.252563463650000e0 -1.264802534790000e0
-1.276934020130000e0 -1.288937502220000e0 -1.300789816090000e0 -1.312464711400000e0
-1.323932489390000e0 -1.335159615930000e0 -1.346108312870000e0 -1.356736130860000e0
-1.366995507980000e0 -1.376833319960000e0 -1.386190430210000e0 -1.395001247790000e0
-1.403193307670000e0 -1.410686884830000e0 -1.417394661740000e0 -1.423221469110000e0
-1.428064123230000e0 -1.431811388830000e0 -1.434344098070000e0 -1.435535462080000e0
-1.435251614210000e0 -1.433352428590000e0 -1.429692660650000e0 -1.424123459120000e0
-1.416494299880000e0 -1.406655392430000e0 -1.394460606760000e0 -1.379770963570000e0
-1.362458720950000e0 -1.342412076440000e0 -1.319540484360000e0 -1.293780558240000e0
-1.265102495020000e0 -1.233516907650000e0 -1.199081896090000e0 -1.161910113130000e0
-1.122175495570000e0 -1.080119228080000e0 -1.036054390680000e0 -9.903686108820001e-1
-9.435239004130000e-1 -8.960527178430000e-1 -8.485491643260000e-1 -8.016541184110000e-1
-7.560330682120000e-1 -7.123454461180000e-1 -6.712044725360000e-1 -6.331269434930000e-1
-5.984731656950000e-1 -5.673784998080000e-1 -5.396799125460000e-1 -5.148438419330001e-1
-4.919058922120000e-1 -4.694388877400000e-1 -4.455742479600000e-1 -4.181133354290000e-1
-3.847814700710000e-1 -3.437747818470000e-1 -2.894100534200000e-1 -2.205067234190000e-1
-1.413119974360000e-1 -6.282472650740000e-2 -8.756783172600000e-3 6.976195773650000e-4
0.000000000000000e0 0.000000000000000e0 0.000000000000000e0 0.000000000000000e0
0.000000000000000e0 0.000000000000000e0 0.000000000000000e0 0.000000000000000e0
0.000000000000000e0 0.000000000000000e0 0.000000000000000e0 0.000000000000000e0
0.000000000000000e0 0.000000000000000e0 0.000000000000000e0 0.000000000000000e0
0.000000000000000e0 0.000000000000000e0 0.000000000000000e0 0.000000000000000e0
0.000000000000000e0 0.000000000000000e0 0.000000000000000e0 0.000000000000000e0
0.000000000000000e0 0.000000000000000e0 0.000000000000000e0 0.000000000000000e0
0.000000000000000e0 0.000000000000000e0 0.000000000000000e0 0.000000000000000e0
0.000000000000000e0 0.000000000000000e0 0.000000000000000e0 0.000000000000000e0
0.000000000000000e0 0.000000000000000e0 0.000000000000000e0 0.000000000000000e0
0.000000000000000e0 0.000000000000000e0 0.000000000000000e0 0.000000000000000e0
0.000000000000000e0 0.000000000000000e0 0.000000000000000e0 0.000000000000000e0
0.000000000000000e0 0.000000000000000e0 0.000000000000000e0 0.000000000000000e0
0.000000000000000e0 0.000000000000000e0 0.000000000000000e0 0.000000000000000e0
0.000000000000000e0 0.000000000000000e0 0.000000000000000e0 0.000000000000000e0
0.000000000000000e0 0.000000000000000e0 0.000000000000000e0 0.000000000000000e0
0.000000000000000e0 0.000000000000000e0 0.000000000000000e0 0.000000000000000e0
0.000000000000000e0 0.000000000000000e0 0.000000000000000e0 0.000000000000000e0
0.000000000000000e0 0.000000000000000e0 0.000000000000000e0 0.000000000000000e0
0.000000000000000e0 0.000000000000000e0 0.000000000000000e0 0.000000000000000e0
0.000000000000000e0 0.000000000000000e0 0.000000000000000e0 0.000000000000000e0
0.000000000000000e0 0.000000000000000e0 0.000000000000000e0 0.000000000000000e0
0.000000000000000e0 0.000000000000000e0 0.000000000000000e0 0.000000000000000e0
0.000000000000000e0 0.000000000000000e0 0.000000000000000e0 0.000000000000000e0
0.000000000000000e0 0.000000000000000e0 0.000000000000000e0 0.000000000000000e0
0.000000000000000e0 0.000000000000000e0 0.000000000000000e0 0.000000000000000e0
0.000000000000000e0 0.000000000000000e0 0.000000000000000e0 0.000000000000000e0
0.000000000000000e0 0.000000000000000e0 0.000000000000000e0 0.000000000000000e0
0.000000000000000e0 0.000000000000000e0 0.000000000000000e0 0.000000000000000e0
0.000000000000000e0 0.000000000000000e0 0.000000000000000e0 0.000000000000000e0
0.000000000000000e0 0.000000000000000e0 0.000000000000000e0 0.000000000000000e0
0.000000000000000e0 0.000000000000000e0 0.000000000000000e0 0.000000000000000e0
0.000000000000000e0 0.000000000000000e0 0.000000000000000e0 0.000000000000000e0
0.000000000000000e0 0.000000000000000e0 0.000000000000000e0 0.000000000000000e0
0.000000000000000e0 0.000000000000000e0 0.000000000000000e0 0.000000000000000e0
0.000000000000000e0 0.000000000000000e0 0.000000000000000e0 0.000000000000000e0
0.000000000000000e0 0.000000000000000e0 0.000000000000000e0 0.000000000000000e0
0.000000000000000e0 0.000000000000000e0 0.000000000000000e0 0.000000000000000e0
0.000000000000000e0 0.000000000000000e0 0.000000000000000e0 0.000000000000000e0
0.000000000000000e0 0.000000000000000e0 0.000000000000000e0 0.000000000000000e0
0.000000000000000e0 0.000000000000000e0 0.000000000000000e0 0.000000000000000e0
0.000000000000000e0 0.000000000000000e0 0.000000000000000e0 0.000000000000000e0
0.000000000000000e0 0.000000000000000e0 0.000000000000000e0 0.000000000000000e0
0.000000000000000e0 0.000000000000000e0 0.000000000000000e0 0.000000000000000e0
0.000000000000000e0 0.000000000000000e0 0.000000000000000e0 0.000000000000000e0
0.000000000000000e0 0.000000000000000e0 0.000000000000000e0 0.000000000000000e0
0.000000000000000e0 0.000000000000000e0 0.000000000000000e0 0.000000000000000e0
0.000000000000000e0 0.000000000000000e0 0.000000000000000e0 0.000000000000000e0
0.000000000000000e0 0.000000000000000e0 0.000000000000000e0 0.000000000000000e0
0.000000000000000e0 0.000000000000000e0 0.000000000000000e0 0.000000000000000e0
0.000000000000000e0 0.000000000000000e0 0.000000000000000e0 0.000000000000000e0
0.000000000000000e0 0.000000000000000e0 0.000000000000000e0 0.000000000000000e0
0.000000000000000e0 0.000000000000000e0 0.000000000000000e0 0.000000000000000e0
0.000000000000000e0 0.000000000000000e0 0.000000000000000e0 0.000000000000000e0
0.000000000000000e0 0.000000000000000e0 0.000000000000000e0 0.000000000000000e0
0.000000000000000e0 0.000000000000000e0 0.000000000000000e0 0.000000000000000e0
0.000000000000000e0 0.000000000000000e0 0.000000000000000e0 0.000000000000000e0
0.000000000000000e0 0.000000000000000e0 0.000000000000000e0 0.000000000000000e0
0.000000000000000e0 0.000000000000000e0 0.000000000000000e0 0.000000000000000e0
0.000000000000000e0 0.000000000000000e0 0.000000000000000e0 0.000000000000000e0
0.000000000000000e0 0.000000000000000e0 0.000000000000000e0 0.000000000000000e0
0.000000000000000e0 0.000000000000000e0 0.000000000000000e0 0.000000000000000e0
0.000000000000000e0 0.000000000000000e0 0.000000000000000e0 0.000000000000000e0
0.000000000000000e0
</PP_BETA.1>
<PP_BETA.2 index="2" label="2P" angular_momentum="0" cutoff_radius_index="499" cutoff_radius="1.000000000000e1" ultrasoft_cutoff_radius="1.100000000000e0">
0.000000000000000e0 4.788886707180000e-5 9.659480685469999e-5 1.461305572830000e-4
1.965279973860000e-4 2.477632221630000e-4 2.998981154230000e-4 3.528929798100000e-4
4.068269881040000e-4 4.616889960190001e-4 5.174348682840001e-4 5.741791960670000e-4
6.318837107299999e-4 6.905775497150000e-4 7.502536535939999e-4 8.110063573119998e-4
8.727010868180001e-4 9.355569253410001e-4 9.994030463609999e-4 1.064397617310000e-3
1.130455354620000e-3 1.197703126640000e-3 1.266012572300000e-3 1.335611115690000e-3
1.406255081450000e-3 1.478230922940000e-3 1.551355475950000e-3 1.625833920690000e-3
1.701389437390000e-3 1.778465542820000e-3 1.856716295600000e-3 1.936324721050000e-3
2.017339831860000e-3 2.099695643840000e-3 2.183522209010000e-3 2.268643291080000e-3
2.355401039750000e-3 2.443490109270000e-3 2.533137736840000e-3 2.624396550219999e-3
2.717114315110000e-3 2.811401369410000e-3 2.907411371330000e-3 3.004949879510000e-3
3.104219527600000e-3 3.205197243910001e-3 3.307826415260000e-3 3.412296964380000e-3
3.518446731520000e-3 3.626576617050000e-3 3.736391706550000e-3 3.848143522670000e-3
3.961862302910000e-3 4.077418325010001e-3 4.195015070350000e-3 4.314614019590000e-3
4.436297432040000e-3 4.559917552050000e-3 4.685892355409999e-3 4.813766306540000e-3
4.943945194920001e-3 5.076369854750000e-3 5.211021056310000e-3 5.348043855760000e-3
5.487255882490000e-3 5.629001683419999e-3 5.773068961420000e-3 5.919672211120000e-3
6.068729754020000e-3 6.220356088550000e-3 6.374562709360000e-3 6.531422220090000e-3
6.690995629040000e-3 6.853168199320001e-3 7.018272403400000e-3 7.186093753830001e-3
7.356836279209999e-3 7.530479141570000e-3 7.707044908990000e-3 7.886725631260000e-3
8.069398578320000e-3 8.255230505840000e-3 8.444224761390000e-3 8.636445941289999e-3
8.831956977299999e-3 9.030831689560001e-3 9.233063248200001e-3 9.438766998420000e-3
9.648065639640000e-3 9.860789977549999e-3 1.007724760430000e-2 1.029742266140000e-2
1.052130378470000e-2 1.074904797450000e-2 1.098065413410000e-2 1.121622121600000e-2
1.145587995250000e-2 1.169955339850000e-2 1.194741966600000e-2 1.219953202140000e-2
1.245597058510000e-2 1.271674157060000e-2 1.298201148080000e-2 1.325177598480000e-2
1.352623017970000e-2 1.380526918280000e-2 1.408916968310000e-2 1.437785004580000e-2
1.467153331800000e-2 1.497018480270000e-2 1.527394416990000e-2 1.558293002700000e-2
1.589716974350000e-2 1.621675841920000e-2 1.654187877620000e-2 1.687247160350000e-2
1.720880577350000e-2 1.755079247270000e-2 1.789868791460000e-2 1.825251759070000e-2
1.861239297590000e-2 1.897839816010000e-2 1.935070065490000e-2 1.972931473120000e-2
2.011441525870000e-2 2.050615538970000e-2 2.090451266300000e-2 2.130970352640000e-2
2.172183797170000e-2 2.214098858460000e-2 2.256731846320000e-2 2.300093652930000e-2
2.344195254990000e-2 2.389051882600000e-2 2.434672625940000e-2 2.481076693750000e-2
2.528271820150000e-2 2.576271577200000e-2 2.625093472800000e-2 2.674752970470000e-2
2.725252873380000e-2 2.776623347510000e-2 2.828868905540000e-2 2.882005132930000e-2
2.936053190550000e-2 2.991020834190000e-2 3.046931840780000e-2 3.103794388590000e-2
3.161630556150000e-2 3.220454737350000e-2 3.280283131340000e-2 3.341134444430000e-2
3.403025076360000e-2 3.465974050420000e-2 3.529996438440000e-2 3.595113874630000e-2
3.661345450400000e-2 3.728704425329999e-2 3.797218061540000e-2 3.866899343170000e-2
3.937772618940000e-2 4.009855632670000e-2 4.083171042500000e-2 4.157736147810000e-2
4.233578280270000e-2 4.310714068459999e-2 4.389166409240000e-2 4.468960718140000e-2
4.550116598310000e-2 4.632657469900000e-2 4.716610527869999e-2 4.801995387510000e-2
4.888838786510000e-2 4.977163907210000e-2 5.066999303560000e-2 5.158368288899999e-2
5.251295183500000e-2 5.345810817780000e-2 5.441938933729999e-2 5.539708390370000e-2
5.639147258090000e-2 5.740282607500000e-2 5.843145584200000e-2 5.947762481750000e-2
6.054167416900000e-2 6.162385474240000e-2 6.272452130670001e-2 6.384396743440001e-2
6.498251100890000e-2 6.614047804629999e-2 6.731821878510001e-2 6.851603238760000e-2
6.973428822700000e-2 7.097332374420001e-2 7.223349311250001e-2 7.351514998220000e-2
7.481867491330001e-2 7.614442121870001e-2 7.749277008560000e-2 7.886411055870001e-2
8.025883406240000e-2 8.167732593380000e-2 8.312000042430000e-2 8.458725321110000e-2
8.607952831979999e-2 8.759720599040000e-2 8.914076554279999e-2 9.071059841730001e-2
9.230718884800000e-2 9.393096638179999e-2 9.558238579699999e-2 9.726193011270000e-2
9.897008083010000e-2 1.007072769730000e-1 1.024740760740000e-1 1.042709122940000e-1
1.060983369690000e-1 1.079568389530000e-1 1.098469548790000e-1 1.117692214380000e-1
1.137241575830000e-1 1.157123380730000e-1 1.177342984260000e-1 1.197906319790000e-1
1.218818883210000e-1 1.240086773940000e-1 1.261715652880000e-1 1.283711923980000e-1
1.306081460020000e-1 1.328830619990000e-1 1.351965748200000e-1 1.375493202150000e-1
1.399419625890000e-1 1.423751647690000e-1 1.448495974490000e-1 1.473659537550000e-1
1.499249216520000e-1 1.525272122500000e-1 1.551735539870000e-1 1.578646568060000e-1
1.606012851220000e-1 1.633841673030000e-1 1.662140820840000e-1 1.690918071820000e-1
1.720181208560000e-1 1.749938196190000e-1 1.780197336270000e-1 1.810966641030000e-1
1.842254548850000e-1 1.874069627620000e-1 1.906420366960000e-1 1.939315486860000e-1
1.972763923750000e-1 2.006774671930000e-1 2.041356710050000e-1 2.076519477640000e-1
2.112272094120000e-1 2.148624345570000e-1 2.185585676820000e-1 2.223165892450000e-1
2.261374918580000e-1 2.300222798310000e-1 2.339719698530000e-1 2.379875875930000e-1
2.420701829800000e-1 2.462208067960000e-1 2.504405396520000e-1 2.547304542840000e-1
2.590916573180000e-1 2.635252515060000e-1 2.680323738370000e-1 2.726141446570000e-1
2.772717315310000e-1 2.820062870200000e-1 2.868189915650000e-1 2.917110392000000e-1
2.966836225820000e-1 3.017379656680000e-1 3.068752908520000e-1 3.120968344620000e-1
3.174038559460000e-1 3.227976062500000e-1 3.282793705050000e-1 3.338504181240000e-1
3.395120557840000e-1 3.452655827560000e-1 3.511123094660000e-1 3.570535644000000e-1
3.630906719760000e-1 3.692249733830000e-1 3.754578139520000e-1 3.817905444440000e-1
3.882245204040000e-1 3.947611064470000e-1 4.014016643920000e-1 4.081475652080000e-1
4.150001748170000e-1 4.219608690910000e-1 4.290310136180000e-1 4.362119747270000e-1
4.435051202420000e-1 4.509118101469999e-1 4.584333936590000e-1 4.660712194030000e-1
4.738266195400000e-1 4.817009215930000e-1 4.896954287680000e-1 4.978114411770000e-1
5.060502297010000e-1 5.144130466290000e-1 5.229011271270000e-1 5.315156715210000e-1
5.402578538969999e-1 5.491288186830000e-1 5.581296685450000e-1 5.672614720760000e-1
5.765252485680000e-1 5.859219780800000e-1 5.954525774830000e-1 6.051179157520000e-1
6.149188001400000e-1 6.248559655740000e-1 6.349300803900000e-1 6.451417318790000e-1
6.554914257349999e-1 6.659795735539999e-1 6.766064931680001e-1 6.873723945819999e-1
6.982773759910001e-1 7.093214172980000e-1 7.205043614330000e-1 7.318259201629999e-1
7.432856543210001e-1 7.548829622130000e-1 7.666170726000000e-1 7.784870412540000e-1
7.904917146930000e-1 8.026297455830001e-1 8.148995604060000e-1 8.272993482200000e-1
8.398270546139999e-1 8.524803507220000e-1 8.652566275540000e-1 8.781529751360001e-1
8.911661617210001e-1 9.042926088749999e-1 9.175283890980001e-1 9.308691737420000e-1
9.443102392429999e-1 9.578464237399999e-1 9.714720991109999e-1 9.851811660000001e-1
9.989669942350000e-1 1.012822412410000e0 1.026739674450000e0 1.040710413270000e0
1.054725621960000e0 1.068775603480000e0 1.082849936270000e0 1.096937438990000e0
1.111026113490000e0 1.125103118490000e0 1.139154705200000e0 1.153166179070000e0
1.167121847090000e0 1.181004961170000e0 1.194797664850000e0 1.208480937730000e0
1.222034532020000e0 1.235436913020000e0 1.248665196130000e0 1.261695076920000e0
1.274500769120000e0 1.287054930580000e0 1.299328593140000e0 1.311291091580000e0
1.322909987650000e0 1.334150996550000e0 1.344977911410000e0 1.355352528470000e0
1.365234570570000e0 1.374581614310000e0 1.383349017700000e0 1.391489846580000e0
1.398954814590000e0 1.405692212030000e0 1.411647852850000e0 1.416765023740000e0
1.420984438360000e0 1.424244205460000e0 1.426479807100000e0 1.427624085680000e0
1.427607256900000e0 1.426356927690000e0 1.423798145510000e0 1.419853465510000e0
1.414443045880000e0 1.407484774580000e0 1.398894429030000e0 1.388585876690000e0
1.376471313040000e0 1.362461555060000e0 1.346466382600000e0 1.328394936730000e0
1.308156187440000e0 1.285659468230000e0 1.260815084700000e0 1.233535010740000e0
1.203733667880000e0 1.171328806080000e0 1.136242477640000e0 1.098402126510000e0
1.057741782220000e0 1.014203375890000e0 9.677381734259999e-1 9.183083314419999e-1
8.658885749220000e-1 8.104679966070000e-1 7.520519713340001e-1 6.906641787730000e-1
6.263487224640000e-1 5.591723303429999e-1 4.892266107430000e-1 4.166303461180000e-1
3.415317732490000e-1 2.641108262380000e-1 1.845812765290000e-1 1.031927112920000e-1
2.023228421530000e-2 -6.397385586110000e-2 -1.490595456530000e-1 -2.346181137250000e-1
-3.202025302290000e-1 -4.053263362840000e-1 -4.894654973210000e-1 -5.720613385090000e-1
-6.525247193790000e-1 -7.302416148020000e-1 -8.045802589199999e-1 -8.749000018700000e-1
-9.405620036889999e-1 -1.000941852780000e0 -1.055444154200000e0 -1.103519042520000e0
-1.144680504850000e0 -1.178526250170000e0 -1.204758726100000e0 -1.223206681230000e0
-1.233846452310000e0 -1.236821877330000e0 -1.232461436570000e0 -1.221290884570000e0
-1.204039266850000e0 -1.181635871230000e0 -1.155195319500000e0 -1.125987772060000e0
-1.095391130450000e0 -1.064822294750000e0 -1.035645139240000e0 -1.009054080620000e0
-9.859342464160001e-1 -9.667026953730000e-1 -9.511403774950001e-1 -9.382323246770000e-1
-9.260447565490001e-1 -9.116836886170001e-1 -8.914017548550000e-1 -8.609504387239999e-1
-8.163164607210000e-1 -7.553806983459999e-1 -6.564288173870000e-1 -5.131582874019999e-1
-3.357242577050000e-1 -1.517354205040000e-1 -2.152019700330000e-2 1.743641140730000e-3
0.000000000000000e0 0.000000000000000e0 0.000000000000000e0 0.000000000000000e0
0.000000000000000e0 0.000000000000000e0 0.000000000000000e0 0.000000000000000e0
0.000000000000000e0 0.000000000000000e0 0.000000000000000e0 0.000000000000000e0
0.000000000000000e0 0.000000000000000e0 0.000000000000000e0 0.000000000000000e0
0.000000000000000e0 0.000000000000000e0 0.000000000000000e0 0.000000000000000e0
0.000000000000000e0 0.000000000000000e0 0.000000000000000e0 0.000000000000000e0
0.000000000000000e0 0.000000000000000e0 0.000000000000000e0 0.000000000000000e0
0.000000000000000e0 0.000000000000000e0 0.000000000000000e0 0.000000000000000e0
0.000000000000000e0 0.000000000000000e0 0.000000000000000e0 0.000000000000000e0
0.000000000000000e0 0.000000000000000e0 0.000000000000000e0 0.000000000000000e0
0.000000000000000e0 0.000000000000000e0 0.000000000000000e0 0.000000000000000e0
0.000000000000000e0 0.000000000000000e0 0.000000000000000e0 0.000000000000000e0
0.000000000000000e0 0.000000000000000e0 0.000000000000000e0 0.000000000000000e0
0.000000000000000e0 0.000000000000000e0 0.000000000000000e0 0.000000000000000e0
0.000000000000000e0 0.000000000000000e0 0.000000000000000e0 0.000000000000000e0
0.000000000000000e0 0.000000000000000e0 0.000000000000000e0 0.000000000000000e0
0.000000000000000e0 0.000000000000000e0 0.000000000000000e0 0.000000000000000e0
0.000000000000000e0 0.000000000000000e0 0.000000000000000e0 0.000000000000000e0
0.000000000000000e0 0.000000000000000e0 0.000000000000000e0 0.000000000000000e0
0.000000000000000e0 0.000000000000000e0 0.000000000000000e0 0.000000000000000e0
0.000000000000000e0 0.000000000000000e0 0.000000000000000e0 0.000000000000000e0
0.000000000000000e0 0.000000000000000e0 0.000000000000000e0 0.000000000000000e0
0.000000000000000e0 0.000000000000000e0 0.000000000000000e0 0.000000000000000e0
0.000000000000000e0 0.000000000000000e0 0.000000000000000e0 0.000000000000000e0
0.000000000000000e0 0.000000000000000e0 0.000000000000000e0 0.000000000000000e0
0.000000000000000e0 0.000000000000000e0 0.000000000000000e0 0.000000000000000e0
0.000000000000000e0 0.000000000000000e0 0.000000000000000e0 0.000000000000000e0
0.000000000000000e0 0.000000000000000e0 0.000000000000000e0 0.000000000000000e0
0.000000000000000e0 0.000000000000000e0 0.000000000000000e0 0.000000000000000e0
0.000000000000000e0 0.000000000000000e0 0.000000000000000e0 0.000000000000000e0
0.000000000000000e0 0.000000000000000e0 0.000000000000000e0 0.000000000000000e0
0.000000000000000e0 0.000000000000000e0 0.000000000000000e0 0.000000000000000e0
0.000000000000000e0 0.000000000000000e0 0.000000000000000e0 0.000000000000000e0
0.000000000000000e0 0.000000000000000e0 0.000000000000000e0 0.000000000000000e0
0.000000000000000e0 0.000000000000000e0 0.000000000000000e0 0.000000000000000e0
0.000000000000000e0 0.000000000000000e0 0.000000000000000e0 0.000000000000000e0
0.000000000000000e0 0.000000000000000e0 0.000000000000000e0 0.000000000000000e0
0.000000000000000e0 0.000000000000000e0 0.000000000000000e0 0.000000000000000e0
0.000000000000000e0 0.000000000000000e0 0.000000000000000e0 0.000000000000000e0
0.000000000000000e0 0.000000000000000e0 0.000000000000000e0 0.000000000000000e0
0.000000000000000e0 0.000000000000000e0 0.000000000000000e0 0.000000000000000e0
0.000000000000000e0 0.000000000000000e0 0.000000000000000e0 0.000000000000000e0
0.000000000000000e0 0.000000000000000e0 0.000000000000000e0 0.000000000000000e0
0.000000000000000e0 0.000000000000000e0 0.000000000000000e0 0.000000000000000e0
0.000000000000000e0 0.000000000000000e0 0.000000000000000e0 0.000000000000000e0
0.000000000000000e0 0.000000000000000e0 0.000000000000000e0 0.000000000000000e0
0.000000000000000e0 0.000000000000000e0 0.000000000000000e0 0.000000000000000e0
0.000000000000000e0 0.000000000000000e0 0.000000000000000e0 0.000000000000000e0
0.000000000000000e0 0.000000000000000e0 0.000000000000000e0 0.000000000000000e0
0.000000000000000e0 0.000000000000000e0 0.000000000000000e0 0.000000000000000e0
0.000000000000000e0 0.000000000000000e0 0.000000000000000e0 0.000000000000000e0
0.000000000000000e0 0.000000000000000e0 0.000000000000000e0 0.000000000000000e0
0.000000000000000e0 0.000000000000000e0 0.000000000000000e0 0.000000000000000e0
0.000000000000000e0 0.000000000000000e0 0.000000000000000e0 0.000000000000000e0
0.000000000000000e0 0.000000000000000e0 0.000000000000000e0 0.000000000000000e0
0.000000000000000e0 0.000000000000000e0 0.000000000000000e0 0.000000000000000e0
0.000000000000000e0 0.000000000000000e0 0.000000000000000e0 0.000000000000000e0
0.000000000000000e0 0.000000000000000e0 0.000000000000000e0 0.000000000000000e0
0.000000000000000e0 0.000000000000000e0 0.000000000000000e0 0.000000000000000e0
0.000000000000000e0 0.000000000000000e0 0.000000000000000e0 0.000000000000000e0
0.000000000000000e0 0.000000000000000e0 0.000000000000000e0 0.000000000000000e0
0.000000000000000e0 0.000000000000000e0 0.000000000000000e0 0.000000000000000e0
0.000000000000000e0 0.000000000000000e0 0.000000000000000e0 0.000000000000000e0
0.000000000000000e0
</PP_BETA.2>
<PP_BETA.3 index="3" label="&lt;/" angular_momentum="1" cutoff_radius_index="499" cutoff_radius="0.000000000000e0" ultrasoft_cutoff_radius="0.000000000000e0">
0.000000000000000e0 -4.251219280200000e-10 4.889736576369999e-9 2.248284125590000e-9
-5.641818866159999e-10 -4.361608656740001e-9 -9.115262303500000e-9 -1.487900633310000e-8
-2.169939482319999e-8 -2.963365756020000e-8 -3.872772840480000e-8 -4.904172946460000e-8
-6.063038454820000e-8 -7.355790347280000e-8 -8.787962968780000e-8 -1.036659482210000e-7
-1.209781538800000e-7 -1.398946090910000e-7 -1.604768522830000e-7 -1.828079836050000e-7
-2.069601421570000e-7 -2.330265643400000e-7 -2.610658538060000e-7 -2.911958689810001e-7
-3.234797768890000e-7 -3.580381195890000e-7 -3.949504938900000e-7 -4.343090119500000e-7
-4.762496555310000e-7 -5.208562726829999e-7 -5.682445894660000e-7 -6.185503645020001e-7
-6.718581076950001e-7 -7.283636004730000e-7 -7.880991384750001e-7 -8.512849710739999e-7
-9.180307159200002e-7 -9.884617122340000e-7 -1.062787309260000e-6 -1.141109489300000e-6
-1.223590777450000e-6 -1.310468377910000e-6 -1.401832040600000e-6 -1.497913857680000e-6
-1.598899218540000e-6 -1.704977260330000e-6 -1.816329376740000e-6 -1.933215939600000e-6
-2.055798173490000e-6 -2.184359490689999e-6 -2.319078549370000e-6 -2.460246611480000e-6
-2.608089568270000e-6 -2.762837981360000e-6 -2.924885055960000e-6 -3.094327830739999e-6
-3.271607294770000e-6 -3.456985528460000e-6 -3.650708981930000e-6 -3.853194231980000e-6
-4.064729027770000e-6 -4.285685573630000e-6 -4.516345335390000e-6 -4.757217521730000e-6
-5.008582091760000e-6 -5.270890476350000e-6 -5.544496764009999e-6 -5.829932076020000e-6
-6.127560931420000e-6 -6.437858826499999e-6 -6.761327047469999e-6 -7.098463021160000e-6
-7.449737976990001e-6 -7.815763414730002e-6 -8.196957736249999e-6 -8.594053262180001e-6
-9.007542192530000e-6 -9.438005512420000e-6 -9.886214464769999e-6 -1.035267960900000e-5
-1.083815891890000e-5 -1.134335855940000e-5 -1.186896308350000e-5 -1.241573578040000e-5
-1.298458229490000e-5 -1.357610058100000e-5 -1.419128557430000e-5 -1.483094843140000e-5
-1.549605744700000e-5 -1.618742339060000e-5 -1.690608717180000e-5 -1.765309056030000e-5
-1.842939154440000e-5 -1.923607393230000e-5 -2.007430431590000e-5 -2.094513280620000e-5
-2.184987004720000e-5 -2.278972473260000e-5 -2.376574857490001e-5 -2.477966700720000e-5
-2.583256182180000e-5 -2.692579807930000e-5 -2.806115497940000e-5 -2.923983908429999e-5
-3.046353617500000e-5 -3.173397705049999e-5 -3.305260142810000e-5 -3.442143654030000e-5
-3.584206121650001e-5 -3.731644189200001e-5 -3.884654547080000e-5 -4.043428002700001e-5
-4.208185629110000e-5 -4.379116778069999e-5 -4.556482228240000e-5 -4.740473630199999e-5
-4.931345407789999e-5 -5.129360106949999e-5 -5.334735469410000e-5 -5.547769942160000e-5
-5.768722705889999e-5 -5.997871208739999e-5 -6.235515127030000e-5 -6.481961777030000e-5
-6.737520736910001e-5 -7.002504519450001e-5 -7.277269582720002e-5 -7.562151650720001e-5
-7.857515785070001e-5 -8.163727900520000e-5 -8.481178923729999e-5 -8.810266721269999e-5
-9.151407321420001e-5 -9.505016264229999e-5 -9.871557522450001e-5 -1.025146110450000e-4
-1.064523348340000e-4 -1.105333130180000e-4 -1.147629074240000e-4 -1.191460991560000e-4
-1.236886425250000e-4 -1.283958734490000e-4 -1.332737332820000e-4 -1.383283579910000e-4
-1.435656712300000e-4 -1.489925602700000e-4 -1.546151956160000e-4 -1.604410199100000e-4
-1.664767247010000e-4 -1.727300383360000e-4 -1.792083784980000e-4 -1.859198007670000e-4
-1.928725229280000e-4 -2.000750002030000e-4 -2.075358715900000e-4 -2.152645447170000e-4
-2.232699828090000e-4 -2.315624857350000e-4 -2.401514439460000e-4 -2.490478844210000e-4
-2.582622485030000e-4 -2.678057131320000e-4 -2.776899734940001e-4 -2.879268587020000e-4
-2.985286612820000e-4 -3.095084238240000e-4 -3.208790634810000e-4 -3.326544923840000e-4
-3.448488213940000e-4 -3.574766200730001e-4 -3.705531697019999e-4 -3.840941593580000e-4
-3.981157246180000e-4 -4.126348060110001e-4 -4.276687147850000e-4 -4.432352931180001e-4
-4.593535716950001e-4 -4.760423327170000e-4 -4.933216867220001e-4 -5.112125028199999e-4
-5.297355964340000e-4 -5.489135398590000e-4 -5.687687357800000e-4 -5.893252993860000e-4
-6.106070739510000e-4 -6.326398843170001e-4 -6.554496671089999e-4 -6.790634430400000e-4
-7.035092144380000e-4 -7.288163447620000e-4 -7.550140657960000e-4 -7.821341693660000e-4
-8.102082993310001e-4 -8.392697343810001e-4 -8.693529720010000e-4 -9.004932887590000e-4
-9.327278166749998e-4 -9.660940772439998e-4 -1.000632117070000e-3 -1.036381951660000e-3
-1.073386251130000e-3 -1.111688192190000e-3 -1.151333108780000e-3 -1.192367540330000e-3
-1.234839743000000e-3 -1.278799727880000e-3 -1.324299003910000e-3 -1.371391052990000e-3
-1.420131127880000e-3 -1.470576483690000e-3 -1.522786127280000e-3 -1.576821401730000e-3
-1.632745567520000e-3 -1.690623903470000e-3 -1.750524517480000e-3 -1.812517096890000e-3
-1.876674581630000e-3 -1.943071507180000e-3 -2.011785717080000e-3 -2.082897442510000e-3
-2.156489574050000e-3 -2.232648136990000e-3 -2.311461813570000e-3 -2.393022569030000e-3
-2.477425578220000e-3 -2.564768731580000e-3 -2.655154288010000e-3 -2.748687045800000e-3
-2.845475981090000e-3 -2.945633598900000e-3 -3.049276430670000e-3 -3.156524623269999e-3
-3.267503145030000e-3 -3.382340446370000e-3 -3.501170092240000e-3 -3.624129698420000e-3
-3.751361978980000e-3 -3.883014232260000e-3 -4.019239181700000e-3 -4.160194345480001e-3
-4.306043213670000e-3 -4.456953884500000e-3 -4.613101645660000e-3 -4.774666415410000e-3
-4.941835160969999e-3 -5.114800698230000e-3 -5.293762997150000e-3 -5.478928188739999e-3
-5.670510062720000e-3 -5.868729331370000e-3 -6.073814350789998e-3 -6.286001361600001e-3
-6.505534544780001e-3 -6.732666325340000e-3 -6.967658026720001e-3 -7.210779621289999e-3
-7.462310306730000e-3 -7.722538807730000e-3 -7.991763737759999e-3 -8.270293831010001e-3
-8.558448068759999e-3 -8.856556762900000e-3 -9.164960834200000e-3 -9.484013264930001e-3
-9.814078733300001e-3 -1.015553421250000e-2 -1.050876966020000e-2 -1.087418810030000e-2
-1.125220601580000e-2 -1.164325414230000e-2 -1.204777787160000e-2 -1.246623710590000e-2
-1.289910777380000e-2 -1.334688140090000e-2 -1.381006636680000e-2 -1.428918780460000e-2
-1.478478868130000e-2 -1.529743010530000e-2 -1.582769175110000e-2 -1.637617304080000e-2
-1.694349310510000e-2 -1.753029171050000e-2 -1.813723032310000e-2 -1.876499176850000e-2
-1.941428215750000e-2 -2.008583056270000e-2 -2.078039051360000e-2 -2.149874030790000e-2
-2.224168386380000e-2 -2.301005185210000e-2 -2.380470196050000e-2 -2.462652016410000e-2
-2.547642171950000e-2 -2.635535136430000e-2 -2.726428533010000e-2 -2.820423067170000e-2
-2.917622848230000e-2 -3.018135238990000e-2 -3.122071185210000e-2 -3.229545120690000e-2
-3.340675240790000e-2 -3.455583502440001e-2 -3.574395763670000e-2 -3.697241951000000e-2
-3.824256070170000e-2 -3.955576424720000e-2 -4.091345688120001e-2 -4.231711044750000e-2
-4.376824295720000e-2 -4.526841994930000e-2 -4.681925640040000e-2 -4.842241668480000e-2
-5.007961741960000e-2 -5.179262800700000e-2 -5.356327216520000e-2 -5.539342940890000e-2
-5.728503643980000e-2 -5.924008884320000e-2 -6.126064193380000e-2 -6.334881322090000e-2
-6.550678247370000e-2 -6.773679508560000e-2 -7.004116176199999e-2 -7.242226084960000e-2
-7.488254059030000e-2 -7.742451869610000e-2 -8.005078592660000e-2 -8.276400618600000e-2
-8.556691843949999e-2 -8.846233864380000e-2 -9.145315970650001e-2 -9.454235517200001e-2
-9.773297810850000e-2 -1.010281643680000e-1 -1.044311326790000e-1 -1.079451863930000e-1
-1.115737146850000e-1 -1.153201927370000e-1 -1.191881842480000e-1 -1.231813410990000e-1
-1.273034041780000e-1 -1.315582049320000e-1 -1.359496650500000e-1 -1.404817969500000e-1
-1.451587048780000e-1 -1.499845831930000e-1 -1.549637184650000e-1 -1.601004873740000e-1
-1.653993566660000e-1 -1.708648831050000e-1 -1.765017109050000e-1 -1.823145723590000e-1
-1.883082836440000e-1 -1.944877456850000e-1 -2.008579395860000e-1 -2.074239246330000e-1
-2.141908359560000e-1 -2.211638795330000e-1 -2.283483291370000e-1 -2.357495217940000e-1
-2.433728522790000e-1 -2.512237676260000e-1 -2.593077613740000e-1 -2.676303659460000e-1
-2.761971463600000e-1 -2.850136900630000e-1 -2.940856007190000e-1 -3.034184859290000e-1
-3.130179483390000e-1 -3.228895738630000e-1 -3.330389193210000e-1 -3.434714994990000e-1
-3.541927731680000e-1 -3.652081277620000e-1 -3.765228639120000e-1 -3.881421775030000e-1
-4.000711427830000e-1 -4.123146917810000e-1 -4.248775953600000e-1 -4.377644409790000e-1
-4.509796104759999e-1 -4.645272569119999e-1 -4.784112786580000e-1 -4.926352958600000e-1
-5.072026207730000e-1 -5.221162324630000e-1 -5.373787464250000e-1 -5.529923853250000e-1
-5.689589479650000e-1 -5.852797782810000e-1 -6.019557321820001e-1 -6.189871456740001e-1
-6.363737995399999e-1 -6.541148865060000e-1 -6.722089762780000e-1 -6.906539794930000e-1
-7.094471131850000e-1 -7.285848645340000e-1 -7.480629545839999e-1 -7.678763015170000e-1
-7.880189843430000e-1 -8.084842043449999e-1 -8.292642467619999e-1 -8.503504419970000e-1
-8.717331224630001e-1 -8.934015809920000e-1 -9.153440221809999e-1 -9.375475130149999e-1
-9.599979255639999e-1 -9.826798738240001e-1 -1.005576642490000e0 -1.028670101510000e0
-1.051940610740000e0 -1.075366903270000e0 -1.098925950880000e0 -1.122592801400000e0
-1.146340387800000e0 -1.170139298960000e0 -1.193957509140000e0 -1.217760057670000e0
-1.241508669900000e0 -1.265161314780000e0 -1.288671685860000e0 -1.311988600720000e0
-1.335055307790000e0 -1.357808692900000e0 -1.380178378460000e0 -1.402085708970000e0
-1.423442619990000e0 -1.444150391280000e0 -1.464098288320000e0 -1.483162104800000e0
-1.501202625710000e0 -1.518064040590000e0 -1.533572352730000e0 -1.547533838890000e0
-1.559733643910000e0 -1.569934603670000e0 -1.577876428070000e0 -1.583275393090000e0
-1.585824734250000e0 -1.585195955720000e0 -1.581041314220000e0 -1.572997764170000e0
-1.560692680980000e0 -1.543751703560000e0 -1.521809038070000e0 -1.494520557490000e0
-1.461579981540000e0 -1.422738335730000e0 -1.377826744380000e0 -1.326782392570000e0
-1.269677181190000e0 -1.206748170820000e0 -1.138428355950000e0 -1.065375595490000e0
-9.884966625160001e-1 -9.089623648429999e-1 -8.282085663860000e-1 -7.479168133780000e-1
-6.699673069820000e-1 -5.963564498950000e-1 -5.290716562380000e-1 -4.699182431340000e-1
-4.202983158060000e-1 -3.809512446190000e-1 -3.516823204760000e-1 -3.311344347410000e-1
-3.167023569430000e-1 -3.049281184170000e-1 -2.807143517240000e-1 -2.348204081410000e-1
-1.653218444670000e-1 -8.056761595119999e-2 -1.234057843880000e-2 9.840807863180000e-4
0.000000000000000e0 0.000000000000000e0 0.000000000000000e0 0.000000000000000e0
0.000000000000000e0 0.000000000000000e0 0.000000000000000e0 0.000000000000000e0
0.000000000000000e0 0.000000000000000e0 0.000000000000000e0 0.000000000000000e0
0.000000000000000e0 0.000000000000000e0 0.000000000000000e0 0.000000000000000e0
0.000000000000000e0 0.000000000000000e0 0.000000000000000e0 0.000000000000000e0
0.000000000000000e0 0.000000000000000e0 0.000000000000000e0 0.000000000000000e0
0.000000000000000e0 0.000000000000000e0 0.000000000000000e0 0.000000000000000e0
0.000000000000000e0 0.000000000000000e0 0.000000000000000e0 0.000000000000000e0
0.000000000000000e0 0.000000000000000e0 0.000000000000000e0 0.000000000000000e0
0.000000000000000e0 0.000000000000000e0 0.000000000000000e0 0.000000000000000e0
0.000000000000000e0 0.000000000000000e0 0.000000000000000e0 0.000000000000000e0
0.000000000000000e0 0.000000000000000e0 0.000000000000000e0 0.000000000000000e0
0.000000000000000e0 0.000000000000000e0 0.000000000000000e0 0.000000000000000e0
0.000000000000000e0 0.000000000000000e0 0.000000000000000e0 0.000000000000000e0
0.000000000000000e0 0.000000000000000e0 0.000000000000000e0 0.000000000000000e0
0.000000000000000e0 0.000000000000000e0 0.000000000000000e0 0.000000000000000e0
0.000000000000000e0 0.000000000000000e0 0.000000000000000e0 0.000000000000000e0
0.000000000000000e0 0.000000000000000e0 0.000000000000000e0 0.000000000000000e0
0.000000000000000e0 0.000000000000000e0 0.000000000000000e0 0.000000000000000e0
0.000000000000000e0 0.000000000000000e0 0.000000000000000e0 0.000000000000000e0
0.000000000000000e0 0.000000000000000e0 0.000000000000000e0 0.000000000000000e0
0.000000000000000e0 0.000000000000000e0 0.000000000000000e0 0.000000000000000e0
0.000000000000000e0 0.000000000000000e0 0.000000000000000e0 0.000000000000000e0
0.000000000000000e0 0.000000000000000e0 0.000000000000000e0 0.000000000000000e0
0.000000000000000e0 0.000000000000000e0 0.000000000000000e0 0.000000000000000e0
0.000000000000000e0 0.000000000000000e0 0.000000000000000e0 0.000000000000000e0
0.000000000000000e0 0.000000000000000e0 0.000000000000000e0 0.000000000000000e0
0.000000000000000e0 0.000000000000000e0 0.000000000000000e0 0.000000000000000e0
0.000000000000000e0 0.000000000000000e0 0.000000000000000e0 0.000000000000000e0
0.000000000000000e0 0.000000000000000e0 0.000000000000000e0 0.000000000000000e0
0.000000000000000e0 0.000000000000000e0 0.000000000000000e0 0.000000000000000e0
0.000000000000000e0 0.000000000000000e0 0.000000000000000e0 0.000000000000000e0
0.000000000000000e0 0.000000000000000e0 0.000000000000000e0 0.000000000000000e0
0.000000000000000e0 0.000000000000000e0 0.000000000000000e0 0.000000000000000e0
0.000000000000000e0 0.000000000000000e0 0.000000000000000e0 0.000000000000000e0
0.000000000000000e0 0.000000000000000e0 0.000000000000000e0 0.000000000000000e0
0.000000000000000e0 0.000000000000000e0 0.000000000000000e0 0.000000000000000e0
0.000000000000000e0 0.000000000000000e0 0.000000000000000e0 0.000000000000000e0
0.000000000000000e0 0.000000000000000e0 0.000000000000000e0 0.000000000000000e0
0.000000000000000e0 0.000000000000000e0 0.000000000000000e0 0.000000000000000e0
0.000000000000000e0 0.000000000000000e0 0.000000000000000e0 0.000000000000000e0
0.000000000000000e0 0.000000000000000e0 0.000000000000000e0 0.000000000000000e0
0.000000000000000e0 0.000000000000000e0 0.000000000000000e0 0.000000000000000e0
0.000000000000000e0 0.000000000000000e0 0.000000000000000e0 0.000000000000000e0
0.000000000000000e0 0.000000000000000e0 0.000000000000000e0 0.000000000000000e0
0.000000000000000e0 0.000000000000000e0 0.000000000000000e0 0.000000000000000e0
0.000000000000000e0 0.000000000000000e0 0.000000000000000e0 0.000000000000000e0
0.000000000000000e0 0.000000000000000e0 0.000000000000000e0 0.000000000000000e0
0.000000000000000e0 0.000000000000000e0 0.000000000000000e0 0.000000000000000e0
0.000000000000000e0 0.000000000000000e0 0.000000000000000e0 0.000000000000000e0
0.000000000000000e0 0.000000000000000e0 0.000000000000000e0 0.000000000000000e0
0.000000000000000e0 0.000000000000000e0 0.000000000000000e0 0.000000000000000e0
0.000000000000000e0 0.000000000000000e0 0.000000000000000e0 0.000000000000000e0
0.000000000000000e0 0.000000000000000e0 0.000000000000000e0 0.000000000000000e0
0.000000000000000e0 0.000000000000000e0 0.000000000000000e0 0.000000000000000e0
0.000000000000000e0 0.000000000000000e0 0.000000000000000e0 0.000000000000000e0
0.000000000000000e0 0.000000000000000e0 0.000000000000000e0 0.000000000000000e0
0.000000000000000e0 0.000000000000000e0 0.000000000000000e0 0.000000000000000e0
0.000000000000000e0 0.000000000000000e0 0.000000000000000e0 0.000000000000000e0
0.000000000000000e0 0.000000000000000e0 0.000000000000000e0 0.000000000000000e0
0.000000000000000e0 0.000000000000000e0 0.000000000000000e0 0.000000000000000e0
0.000000000000000e0 0.000000000000000e0 0.000000000000000e0 0.000000000000000e0
0.000000000000000e0 0.000000000000000e0 0.000000000000000e0 0.000000000000000e0
0.000000000000000e0
</PP_BETA.3>
<PP_BETA.4 index="4" label="  " angular_momentum="1" cutoff_radius_index="499" cutoff_radius="0.000000000000e0" ultrasoft_cutoff_radius="0.000000000000e0">
0.000000000000000e0 -7.083045190749999e-10 -6.707462220699999e-9 -8.713315961489998e-9
-1.228310795030000e-8 -1.692775892530000e-8 -2.275743568690000e-8 -2.982329612450001e-8
-3.818851700910000e-8 -4.791416497310000e-8 -5.906562045029999e-8 -7.171237914039999e-8
-8.592229095460000e-8 -1.017705408490000e-7 -1.193321996190000e-7 -1.386880796770000e-7
-1.599164728930000e-7 -1.831078452670000e-7 -2.083461074700000e-7 -2.357263316890000e-7
-2.653421014150000e-7 -2.972946961420000e-7 -3.316841267880000e-7 -3.686211088850000e-7
-4.082123813780000e-7 -4.505772658780000e-7 -4.958331237159999e-7 -5.441029519099999e-7
-5.955204544450002e-7 -6.502126616270000e-7 -7.083227978649998e-7 -7.699950622809998e-7
-8.353743309020000e-7 -9.046245891850003e-7 -9.778950854649999e-7 -1.055359690200000e-6
-1.137192443790000e-6 -1.223568512320000e-6 -1.314676330610000e-6 -1.410712599950000e-6
-1.511863497290000e-6 -1.618362319290000e-6 -1.730396349930000e-6 -1.848204209170000e-6
-1.972023195640000e-6 -2.102075590410000e-6 -2.238623373430000e-6 -2.381925226630000e-6
-2.532238481309999e-6 -2.689855316270001e-6 -2.855044980960000e-6 -3.028125276650000e-6
-3.209393054730000e-6 -3.399165128830001e-6 -3.597794715890000e-6 -3.805593211259999e-6
-4.022949796980000e-6 -4.250213760179999e-6 -4.487777478250000e-6 -4.736027307770000e-6
-4.995390379610000e-6 -5.266283714100000e-6 -5.549146355170000e-6 -5.844442328520000e-6
-6.152647349459999e-6 -6.474246191460001e-6 -6.809745282330000e-6 -7.159691339450001e-6
-7.524610640060001e-6 -7.905073687700000e-6 -8.301675019600003e-6 -8.715017870350000e-6
-9.145727858910000e-6 -9.594467454920002e-6 -1.006189662350000e-5 -1.054873327430000e-5
-1.105568627490000e-5 -1.158351644320000e-5 -1.213300176420000e-5 -1.270493905700000e-5
-1.330017247670000e-5 -1.391955515360000e-5 -1.456399616940000e-5 -1.523440748300000e-5
-1.593176176660000e-5 -1.665704770580000e-5 -1.741128147650000e-5 -1.819555598880000e-5
-1.901095618260000e-5 -1.985863132230000e-5 -2.073975170580000e-5 -2.165557155820000e-5
-2.260733482510000e-5 -2.359636348850000e-5 -2.462402104980000e-5 -2.569170637520000e-5
-2.680089879320000e-5 -2.795309639519999e-5 -2.914983814250000e-5 -3.039279528550001e-5
-3.168360925030000e-5 -3.302400809870000e-5 -3.441582232500000e-5 -3.586088315790001e-5
-3.736112168219999e-5 -3.891855105500000e-5 -4.053520099900000e-5 -4.221324522030001e-5
-4.395486442080000e-5 -4.576236396920000e-5 -4.763811674730000e-5 -4.958456293780000e-5
-5.160426433729999e-5 -5.369981127459999e-5 -5.587398773719999e-5 -5.812953105730000e-5
-6.046942670929999e-5 -6.289666402749999e-5 -6.541435455159999e-5 -6.802575568010000e-5
-7.073420798280000e-5 -7.354316094030001e-5 -7.645621466940000e-5 -7.947707799260001e-5
-8.260960706800001e-5 -8.585772699990001e-5 -8.922561270979999e-5 -9.271748636520000e-5
-9.633776833759999e-5 -1.000910113560000e-4 -1.039819431370000e-4 -1.080154468720000e-4
-1.121965695630000e-4 -1.165305684460000e-4 -1.210228320210000e-4 -1.256789652340000e-4
-1.305047983370000e-4 -1.355062848140000e-4 -1.406896823610000e-4 -1.460613673160000e-4
-1.516280533950000e-4 -1.573965587070000e-4 -1.633740380130000e-4 -1.695678808220000e-4
-1.759856468600000e-4 -1.826353107040000e-4 -1.895249498940000e-4 -1.966630993880000e-4
-2.040584293370000e-4 -2.117200343250000e-4 -2.196572457740000e-4 -2.278797601530000e-4
-2.363975877400000e-4 -2.452211377790000e-4 -2.543610635650000e-4 -2.638285400400000e-4
-2.736349850160000e-4 -2.837923594350000e-4 -2.943128620850000e-4 -3.052092930250000e-4
-3.164947789110000e-4 -3.281829157060000e-4 -3.402878159740000e-4 -3.528240670750000e-4
-3.658066845360000e-4 -3.792513367090000e-4 -3.931740993170000e-4 -4.075917129730000e-4
-4.225214037230001e-4 -4.379810638149999e-4 -4.539891713830000e-4 -4.705648287180001e-4
-4.877278181960001e-4 -5.054986160999999e-4 -5.238983584280001e-4 -5.429489212350001e-4
-5.626730113970000e-4 -5.830939731370001e-4 -6.042360726989999e-4 -6.261243850870001e-4
-6.487847739129999e-4 -6.722441090789999e-4 -6.965300543350001e-4 -7.216713765810000e-4
-7.476976256340000e-4 -7.746395698350001e-4 -8.025289003680001e-4 -8.313984290670000e-4
-8.612820797250000e-4 -8.922150018480000e-4 -9.242333987660000e-4 -9.573748801880001e-4
-9.916782343889999e-4 -1.027183571860000e-3 -1.063932433230000e-3 -1.101967693820000e-3
-1.141333776030000e-3 -1.182076498010000e-3 -1.224243381940000e-3 -1.267883405860000e-3
-1.313047336430000e-3 -1.359787561530000e-3 -1.408158344220000e-3 -1.458215668840000e-3
-1.510017514410000e-3 -1.563623759360000e-3 -1.619096305530000e-3 -1.676499165510000e-3
-1.735898479910000e-3 -1.797362635790000e-3 -1.860962293940000e-3 -1.926770506130000e-3
-1.994862782210000e-3 -2.065317079520000e-3 -2.138214100860000e-3 -2.213637086350000e-3
-2.291672210640000e-3 -2.372408350050001e-3 -2.455937475100000e-3 -2.542354535780000e-3
-2.631757638670000e-3 -2.724248141890000e-3 -2.819930769550000e-3 -2.918913638870000e-3
-3.021308525560000e-3 -3.127230719430000e-3 -3.236799500810000e-3 -3.350137843540000e-3
-3.467372878060000e-3 -3.588635798960000e-3 -3.714062114770000e-3 -3.843791655490000e-3
-3.977968899410000e-3 -4.116742818840000e-3 -4.260267333080000e-3 -4.408701181620001e-3
-4.562208261010000e-3 -4.720957658350001e-3 -4.885123832530000e-3 -5.054886794840000e-3
-5.230432235970000e-3 -5.411951622459999e-3 -5.599642572020000e-3 -5.793708711230000e-3
-5.994360111400000e-3 -6.201813297300001e-3 -6.416291481670000e-3 -6.638024782690000e-3
-6.867250234910001e-3 -7.104212183470000e-3 -7.349162314190000e-3 -7.602359896620001e-3
-7.864071967400000e-3 -8.134573431649999e-3 -8.414147415510000e-3 -8.703085290769998e-3
-9.001686909070001e-3 -9.310260834000001e-3 -9.629124473789998e-3 -9.958604259670000e-3
-1.029903585630000e-2 -1.065076431220000e-2 -1.101414423900000e-2 -1.138953999200000e-2
-1.177732581590000e-2 -1.217788595360000e-2 -1.259161498410000e-2 -1.301891765690000e-2
-1.346020929740000e-2 -1.391591578540000e-2 -1.438647373100000e-2 -1.487233047340000e-2
-1.537394428850000e-2 -1.589178433050000e-2 -1.642633076290000e-2 -1.697807472670000e-2
-1.754751836470000e-2 -1.813517478370000e-2 -1.874156797890000e-2 -1.936723280770000e-2
-2.001271480610000e-2 -2.067857003830000e-2 -2.136536496300000e-2 -2.207367608070000e-2
-2.280408977470000e-2 -2.355720179520000e-2 -2.433361712430000e-2 -2.513394918100000e-2
-2.595881956090000e-2 -2.680885734880000e-2 -2.768469839260000e-2 -2.858698459080000e-2
-2.951636307120000e-2 -3.047348514660000e-2 -3.145900537610000e-2 -3.247358022909999e-2
-3.351786703870000e-2 -3.459252229690000e-2 -3.569820034759999e-2 -3.683555145080000e-2
-3.800522008520000e-2 -3.920784277400000e-2 -4.044404591400000e-2 -4.171444331919999e-2
-4.301963355550001e-2 -4.436019707280000e-2 -4.573669316849999e-2 -4.714965641200000e-2
-4.859959323540000e-2 -5.008697778309999e-2 -5.161224781490001e-2 -5.317579997410000e-2
-5.477798494229999e-2 -5.641910208280000e-2 -5.809939375790000e-2 -5.981903910980000e-2
-6.157814756690000e-2 -6.337675177860000e-2 -6.521479995939999e-2 -6.709214799260000e-2
-6.900855055479999e-2 -7.096365216349999e-2 -7.295697707900000e-2 -7.498791897739999e-2
-7.705572976070001e-2 -7.915950764080000e-2 -8.129818445710001e-2 -8.347051241429998e-2
-8.567504971669999e-2 -8.791014555720000e-2 -9.017392408419999e-2 -9.246426765159999e-2
-9.477879879950001e-2 -9.711486160610001e-2 -9.946950170910000e-2 -1.018394455460000e-1
-1.042210783110000e-1 -1.066104209010000e-1 -1.090031058630000e-1 -1.113943520140000e-1
-1.137789379380000e-1 -1.161511745990000e-1 -1.185048764580000e-1 -1.208333316570000e-1
-1.231292711380000e-1 -1.253848364840000e-1 -1.275915468930000e-1 -1.297402652070000e-1
-1.318211627560000e-1 -1.338236838690000e-1 -1.357365091020000e-1 -1.375475185630000e-1
-1.392437540530000e-1 -1.408113819380000e-1 -1.422356550850000e-1 -1.435008757230000e-1
-1.445903586400000e-1 -1.454863951850000e-1 -1.461702187010000e-1 -1.466219716530000e-1
-1.468206748410000e-1 -1.467441995110000e-1 -1.463692427730000e-1 -1.456713070850000e-1
-1.446246846040000e-1 -1.432024471420000e-1 -1.413764428440000e-1 -1.391173004580000e-1
-1.363944423850000e-1 -1.331761078400000e-1 -1.294293873130000e-1 -1.251202699850000e-1
-1.202137055810000e-1 -1.146736823900000e-1 -1.084633234810000e-1 -1.015450027590000e-1
-9.388048349860000e-2 -8.543108103080000e-2 -7.615785256920001e-2 -6.602181620180001e-2
-5.498420198940001e-2 -4.300673789580000e-2 -3.005197301380000e-2 -1.608364178070000e-2
-1.067070971710000e-3 1.503036652030000e-2 3.223874884240000e-2 5.058505046130000e-2
7.009253278380000e-2 9.078007773230000e-2 1.126614624700000e-1 1.357445733340000e-1
1.600305583240000e-1 1.855129172210000e-1 2.121765303640000e-1 2.399966273760000e-1
2.689376984690000e-1 2.989523526600000e-1 3.299801290360000e-1 3.619462684800000e-1
3.947604566340000e-1 4.283155506210000e-1 4.624863056250000e-1 4.971281202300000e-1
5.320758241380000e-1 5.671425349050000e-1 6.021186159070000e-1 6.367707724060000e-1
6.708413280730000e-1 7.040477301440000e-1 7.360823374510001e-1 7.666125526010000e-1
7.952813645959999e-1 8.217083767920000e-1 8.454913991820000e-1 8.662086917120000e-1
8.834219487290000e-1 8.966801198870000e-1 9.055241639129999e-1 9.094928322950000e-1
9.081295767360000e-1 9.009906674390001e-1 8.876545982930001e-1 8.677328376929999e-1
8.408819599839999e-1 8.068171605820000e-1 7.653271152799999e-1 7.162900922320000e-1
6.596911582130000e-1 5.956402407200000e-1 5.243907112060000e-1 4.463580404190000e-1
3.621379449770000e-1 2.725232932990000e-1 1.785188690390000e-1 8.135290492789998e-2
-1.751590133110000e-2 -1.163973845270000e-1 -2.133766278360000e-1 -3.063302986020000e-1
-3.929546764820000e-1 -4.708075665110000e-1 -5.373663345080000e-1 -5.901042335910000e-1
-6.265869639740000e-1 -6.445909695430000e-1 -6.422442565960001e-1 -6.181894464340000e-1
-5.717672549840001e-1 -5.032165334749999e-1 -4.138843032690000e-1 -3.064357765250000e-1
-1.850500938300000e-1 -5.558238052600000e-2 7.433324872260000e-2 1.952717970660000e-1
2.961357666830000e-1 3.644499203840000e-1 3.868843698310000e-1 3.500611392280000e-1
2.416975961780000e-1 5.212995567430000e-2 -2.237636272660000e-1 -5.842653080760000e-1
-1.018245622510000e0 -1.502538926260000e0 -1.999674507800000e0 -2.456651877180000e0
-2.805860548420000e0 -2.969815157920000e0 -2.873877588380000e0 -2.464974169690000e0
-1.749183264060000e0 -8.493211920840000e-1 -1.284317071660000e-1 1.023690021000000e-2
0.000000000000000e0 0.000000000000000e0 0.000000000000000e0 0.000000000000000e0
0.000000000000000e0 0.000000000000000e0 0.000000000000000e0 0.000000000000000e0
0.000000000000000e0 0.000000000000000e0 0.000000000000000e0 0.000000000000000e0
0.000000000000000e0 0.000000000000000e0 0.000000000000000e0 0.000000000000000e0
0.000000000000000e0 0.000000000000000e0 0.000000000000000e0 0.000000000000000e0
0.000000000000000e0 0.000000000000000e0 0.000000000000000e0 0.000000000000000e0
0.000000000000000e0 0.000000000000000e0 0.000000000000000e0 0.000000000000000e0
0.000000000000000e0 0.000000000000000e0 0.000000000000000e0 0.000000000000000e0
0.000000000000000e0 0.000000000000000e0 0.000000000000000e0 0.000000000000000e0
0.000000000000000e0 0.000000000000000e0 0.000000000000000e0 0.000000000000000e0
0.000000000000000e0 0.000000000000000e0 0.000000000000000e0 0.000000000000000e0
0.000000000000000e0 0.000000000000000e0 0.000000000000000e0 0.000000000000000e0
0.000000000000000e0 0.000000000000000e0 0.000000000000000e0 0.000000000000000e0
0.000000000000000e0 0.000000000000000e0 0.000000000000000e0 0.000000000000000e0
0.000000000000000e0 0.000000000000000e0 0.000000000000000e0 0.000000000000000e0
0.000000000000000e0 0.000000000000000e0 0.000000000000000e0 0.000000000000000e0
0.000000000000000e0 0.000000000000000e0 0.000000000000000e0 0.000000000000000e0
0.000000000000000e0 0.000000000000000e0 0.000000000000000e0 0.000000000000000e0
0.000000000000000e0 0.000000000000000e0 0.000000000000000e0 0.000000000000000e0
0.000000000000000e0 0.000000000000000e0 0.000000000000000e0 0.000000000000000e0
0.000000000000000e0 0.000000000000000e0 0.000000000000000e0 0.000000000000000e0
0.000000000000000e0 0.000000000000000e0 0.000000000000000e0 0.000000000000000e0
0.000000000000000e0 0.000000000000000e0 0.000000000000000e0 0.000000000000000e0
0.000000000000000e0 0.000000000000000e0 0.000000000000000e0 0.000000000000000e0
0.000000000000000e0 0.000000000000000e0 0.000000000000000e0 0.000000000000000e0
0.000000000000000e0 0.000000000000000e0 0.000000000000000e0 0.000000000000000e0
0.000000000000000e0 0.000000000000000e0 0.000000000000000e0 0.000000000000000e0
0.000000000000000e0 0.000000000000000e0 0.000000000000000e0 0.000000000000000e0
0.000000000000000e0 0.000000000000000e0 0.000000000000000e0 0.000000000000000e0
0.000000000000000e0 0.000000000000000e0 0.000000000000000e0 0.000000000000000e0
0.000000000000000e0 0.000000000000000e0 0.000000000000000e0 0.000000000000000e0
0.000000000000000e0 0.000000000000000e0 0.000000000000000e0 0.000000000000000e0
0.000000000000000e0 0.000000000000000e0 0.000000000000000e0 0.000000000000000e0
0.000000000000000e0 0.000000000000000e0 0.000000000000000e0 0.000000000000000e0
0.000000000000000e0 0.000000000000000e0 0.000000000000000e0 0.000000000000000e0
0.000000000000000e0 0.000000000000000e0 0.000000000000000e0 0.000000000000000e0
0.000000000000000e0 0.000000000000000e0 0.000000000000000e0 0.000000000000000e0
0.000000000000000e0 0.000000000000000e0 0.000000000000000e0 0.000000000000000e0
0.000000000000000e0 0.000000000000000e0 0.000000000000000e0 0.000000000000000e0
0.000000000000000e0 0.000000000000000e0 0.000000000000000e0 0.000000000000000e0
0.000000000000000e0 0.000000000000000e0 0.000000000000000e0 0.000000000000000e0
0.000000000000000e0 0.000000000000000e0 0.000000000000000e0 0.000000000000000e0
0.000000000000000e0 0.000000000000000e0 0.000000000000000e0 0.000000000000000e0
0.000000000000000e0 0.000000000000000e0 0.000000000000000e0 0.000000000000000e0
0.000000000000000e0 0.000000000000000e0 0.000000000000000e0 0.000000000000000e0
0.000000000000000e0 0.000000000000000e0 0.000000000000000e0 0.000000000000000e0
0.000000000000000e0 0.000000000000000e0 0.000000000000000e0 0.000000000000000e0
0.000000000000000e0 0.000000000000000e0 0.000000000000000e0 0.000000000000000e0
0.000000000000000e0 0.000000000000000e0 0.000000000000000e0 0.000000000000000e0
0.000000000000000e0 0.000000000000000e0 0.000000000000000e0 0.000000000000000e0
0.000000000000000e0 0.000000000000000e0 0.000000000000000e0 0.000000000000000e0
0.000000000000000e0 0.000000000000000e0 0.000000000000000e0 0.000000000000000e0
0.000000000000000e0 0.000000000000000e0 0.000000000000000e0 0.000000000000000e0
0.000000000000000e0 0.000000000000000e0 0.000000000000000e0 0.000000000000000e0
0.000000000000000e0 0.000000000000000e0 0.000000000000000e0 0.000000000000000e0
0.000000000000000e0 0.000000000000000e0 0.000000000000000e0 0.000000000000000e0
0.000000000000000e0 0.000000000000000e0 0.000000000000000e0 0.000000000000000e0
0.000000000000000e0 0.000000000000000e0 0.000000000000000e0 0.000000000000000e0
0.000000000000000e0 0.000000000000000e0 0.000000000000000e0 0.000000000000000e0
0.000000000000000e0 0.000000000000000e0 0.000000000000000e0 0.000000000000000e0
0.000000000000000e0 0.000000000000000e0 0.000000000000000e0 0.000000000000000e0
0.000000000000000e0 0.000000000000000e0 0.000000000000000e0 0.000000000000000e0
0.000000000000000e0 0.000000000000000e0 0.000000000000000e0 0.000000000000000e0
0.000000000000000e0
</PP_BETA.4>
<PP_DIJ>
-1.502309439520000e-1 4.312974246400000e0 0.000000000000000e0 0.000000000000000e0
4.312974246400000e0 -5.355230473380000e0 0.000000000000000e0 0.000000000000000e0
0.000000000000000e0 0.000000000000000e0 4.275393320750000e1 -4.043513876020000e1
0.000000000000000e0 0.000000000000000e0 -4.043513876020000e1 3.795946664390000e1
</PP_DIJ>
<PP_AUGMENTATION q_with_l="false" nqf="8" nqlc="3">
<PP_Q>
-5.043817848760001e-1 3.186166503790000e-1 0.000000000000000e0 0.000000000000000e0
3.186166503790000e-1 -1.702521580940000e-1 0.000000000000000e0 0.000000000000000e0
0.000000000000000e0 0.000000000000000e0 2.749733172020000e0 -1.788391759110000e0
0.000000000000000e0 0.000000000000000e0 -1.788391759110000e0 1.005539061940000e0
</PP_Q>
<!-- polinomial expansion of Q_ij at small radius -->
<PP_QFCOEF>
-1.678722952190000e1 8.206837549890000e1 -1.252145302050000e2 -2.085876644800000e2
1.342277366690000e3 -2.641925301100001e3 2.428343542290001e3 -8.718873357610001e2
0.000000000000000e0 0.000000000000000e0 0.000000000000000e0 0.000000000000000e0
0.000000000000000e0 0.000000000000000e0 0.000000000000000e0 0.000000000000000e0
0.000000000000000e0 0.000000000000000e0 0.000000000000000e0 0.000000000000000e0
0.000000000000000e0 0.000000000000000e0 0.000000000000000e0 0.000000000000000e0
1.387216605340000e1 -7.221581277720000e1 7.106996932220000e1 5.575508359280001e2
-2.552788664780000e3 4.834281610700001e3 -4.419897229870001e3 1.590239632020000e3
0.000000000000000e0 0.000000000000000e0 0.000000000000000e0 0.000000000000000e0
0.000000000000000e0 0.000000000000000e0 0.000000000000000e0 0.000000000000000e0
0.000000000000000e0 0.000000000000000e0 0.000000000000000e0 0.000000000000000e0
0.000000000000000e0 0.000000000000000e0 0.000000000000000e0 0.000000000000000e0
0.000000000000000e0 0.000000000000000e0 0.000000000000000e0 0.000000000000000e0
0.000000000000000e0 0.000000000000000e0 0.000000000000000e0 0.000000000000000e0
9.999161319570000e0 -1.397627750750000e2 1.586493041250000e3 -9.134397583570001e3
2.770913745990001e4 -4.558216195850000e4 3.854509588110001e4 -1.314625527700000e4
0.000000000000000e0 0.000000000000000e0 0.000000000000000e0 0.000000000000000e0
0.000000000000000e0 0.000000000000000e0 0.000000000000000e0 0.000000000000000e0
0.000000000000000e0 0.000000000000000e0 0.000000000000000e0 0.000000000000000e0
0.000000000000000e0 0.000000000000000e0 0.000000000000000e0 0.000000000000000e0
-1.704610038820000e1 1.453390654710000e2 -1.271310267080000e3 6.968700191440000e3
-2.093289176940000e4 3.433725295830001e4 -2.899670974690000e4 9.880332186090001e3
0.000000000000000e0 0.000000000000000e0 0.000000000000000e0 0.000000000000000e0
0.000000000000000e0 0.000000000000000e0 0.000000000000000e0 0.000000000000000e0
1.387216605340000e1 -7.221581277720000e1 7.106996932220000e1 5.575508359280001e2
-2.552788664780000e3 4.834281610700001e3 -4.419897229870001e3 1.590239632020000e3
0.000000000000000e0 0.000000000000000e0 0.000000000000000e0 0.000000000000000e0
0.000000000000000e0 0.000000000000000e0 0.000000000000000e0 0.000000000000000e0
0.000000000000000e0 0.000000000000000e0 0.000000000000000e0 0.000000000000000e0
0.000000000000000e0 0.000000000000000e0 0.000000000000000e0 0.000000000000000e0
-8.933262735520000e0 4.804721801310000e1 -3.189662990850000e1 -5.148371428030001e2
2.219953550640000e3 -4.160146343050001e3 3.789782976950001e3 -1.360721720140000e3
0.000000000000000e0 0.000000000000000e0 0.000000000000000e0 0.000000000000000e0
0.000000000000000e0 0.000000000000000e0 0.000000000000000e0 0.000000000000000e0
0.000000000000000e0 0.000000000000000e0 0.000000000000000e0 0.000000000000000e0
0.000000000000000e0 0.000000000000000e0 0.000000000000000e0 0.000000000000000e0
0.000000000000000e0 0.000000000000000e0 0.000000000000000e0 0.000000000000000e0
0.000000000000000e0 0.000000000000000e0 0.000000000000000e0 0.000000000000000e0
-2.162922969200000e1 1.654956854010000e2 -6.825459955610000e2 2.475760598020001e3
-6.676718060670002e3 1.083877473180000e4 -9.258551635310001e3 3.197239164090000e3
0.000000000000000e0 0.000000000000000e0 0.000000000000000e0 0.000000000000000e0
0.000000000000000e0 0.000000000000000e0 0.000000000000000e0 0.000000000000000e0
0.000000000000000e0 0.000000000000000e0 0.000000000000000e0 0.000000000000000e0
0.000000000000000e0 0.000000000000000e0 0.000000000000000e0 0.000000000000000e0
2.378404830730000e1 -1.652737304170000e2 6.122135090530001e2 -2.038974147760000e3
5.334558476580001e3 -8.606365635270000e3 7.350883376750001e3 -2.540896748250001e3
0.000000000000000e0 0.000000000000000e0 0.000000000000000e0 0.000000000000000e0
0.000000000000000e0 0.000000000000000e0 0.000000000000000e0 0.000000000000000e0
0.000000000000000e0 0.000000000000000e0 0.000000000000000e0 0.000000000000000e0
0.000000000000000e0 0.000000000000000e0 0.000000000000000e0 0.000000000000000e0
9.999161319570000e0 -1.397627750750000e2 1.586493041250000e3 -9.134397583570001e3
2.770913745990001e4 -4.558216195850000e4 3.854509588110001e4 -1.314625527700000e4
0.000000000000000e0 0.000000000000000e0 0.000000000000000e0 0.000000000000000e0
0.000000000000000e0 0.000000000000000e0 0.000000000000000e0 0.000000000000000e0
0.000000000000000e0 0.000000000000000e0 0.000000000000000e0 0.000000000000000e0
0.000000000000000e0 0.000000000000000e0 0.000000000000000e0 0.000000000000000e0
-2.162922969200000e1 1.654956854010000e2 -6.825459955610000e2 2.475760598020001e3
-6.676718060670002e3 1.083877473180000e4 -9.258551635310001e3 3.197239164090000e3
0.000000000000000e0 0.000000000000000e0 0.000000000000000e0 0.000000000000000e0
0.000000000000000e0 0.000000000000000e0 0.000000000000000e0 0.000000000000000e0
5.193568196720000e1 -1.808069701330000e2 4.425346028670001e2 -1.687833326660000e3
5.235025937030001e3 -9.097050510070000e3 8.010077369190002e3 -2.809466481930001e3
0.000000000000000e0 0.000000000000000e0 0.000000000000000e0 0.000000000000000e0
0.000000000000000e0 0.000000000000000e0 0.000000000000000e0 0.000000000000000e0
1.378919462930000e2 2.265715688690001e3 -3.313799498010001e4 1.781807433940000e5
-5.006789229600002e5 7.744697566310002e5 -6.240920547340003e5 2.048842429800001e5
-4.598191690650000e1 2.154657642260000e2 -8.011010627160001e2 3.524334451340001e3
-1.092288673820000e4 1.896511539970001e4 -1.678136573840000e4 5.922540493680001e3
0.000000000000000e0 0.000000000000000e0 0.000000000000000e0 0.000000000000000e0
0.000000000000000e0 0.000000000000000e0 0.000000000000000e0 0.000000000000000e0
-8.800324178690001e1 -2.049203575480000e3 2.857632948440001e4 -1.527205592750001e5
4.281300144820000e5 -6.610797292060003e5 5.318863281880002e5 -1.743707218980000e5
0.000000000000000e0 0.000000000000000e0 0.000000000000000e0 0.000000000000000e0
0.000000000000000e0 0.000000000000000e0 0.000000000000000e0 0.000000000000000e0
-1.704610038820000e1 1.453390654710000e2 -1.271310267080000e3 6.968700191440000e3
-2.093289176940000e4 3.433725295830001e4 -2.899670974690000e4 9.880332186090001e3
0.000000000000000e0 0.000000000000000e0 0.000000000000000e0 0.000000000000000e0
0.000000000000000e0 0.000000000000000e0 0.000000000000000e0 0.000000000000000e0
0.000000000000000e0 0.000000000000000e0 0.000000000000000e0 0.000000000000000e0
0.000000000000000e0 0.000000000000000e0 0.000000000000000e0 0.000000000000000e0
2.378404830730000e1 -1.652737304170000e2 6.122135090530001e2 -2.038974147760000e3
5.334558476580001e3 -8.606365635270000e3 7.350883376750001e3 -2.540896748250001e3
0.000000000000000e0 0.000000000000000e0 0.000000000000000e0 0.000000000000000e0
0.000000000000000e0 0.000000000000000e0 0.000000000000000e0 0.000000000000000e0
-4.598191690650000e1 2.154657642260000e2 -8.011010627160001e2 3.524334451340001e3
-1.092288673820000e4 1.896511539970001e4 -1.678136573840000e4 5.922540493680001e3
0.000000000000000e0 0.000000000000000e0 0.000000000000000e0 0.000000000000000e0
0.000000000000000e0 0.000000000000000e0 0.000000000000000e0 0.000000000000000e0
-8.800324178690001e1 -2.049203575480000e3 2.857632948440001e4 -1.527205592750001e5
4.281300144820000e5 -6.610797292060003e5 5.318863281880002e5 -1.743707218980000e5
4.117748546710000e1 -2.441278031440000e2 1.096423013100000e3 -5.038739453560001e3
1.561636279720000e4 -2.711005711980001e4 2.402182244880001e4 -8.492451116840002e3
0.000000000000000e0 0.000000000000000e0 0.000000000000000e0 0.000000000000000e0
0.000000000000000e0 0.000000000000000e0 0.000000000000000e0 0.000000000000000e0
4.740481891290000e1 1.873633611080001e3 -2.487207399710000e4 1.320415896100001e5
-3.691953817800000e5 5.689531653260001e5 -4.569600843700002e5 1.495720683940001e5
</PP_QFCOEF>
<PP_RINNER>
8.000000000000000e-1 8.000000000000000e-1 8.000000000000000e-1
</PP_RINNER>
<PP_QIJ.1.1 first_index="1" second_index="1" composite_index="1">
0.000000000000000e0 -6.150585531429997e-10 -2.502468196290000e-9 -5.727485392060000e-9
-1.035798217680000e-8 -1.646454259280000e-8 -2.412056255130000e-8 -3.340235324860000e-8
-4.438924825750000e-8 -5.716371442329999e-8 -7.181146669880000e-8 -8.842158705339999e-8
-1.070866476020000e-7 -1.279028380980000e-7 -1.509700979450000e-7 -1.763922528850000e-7
-2.042771565260000e-7 -2.347368368750000e-7 -2.678876480620000e-7 -3.038504274160000e-7
-3.427506581050000e-7 -3.847186375140001e-7 -4.298896515689999e-7 -4.784041552150001e-7
-5.304079592640000e-7 -5.860524238269999e-7 -6.454946585709998e-7 -7.088977300270001e-7
-7.764308762099999e-7 -8.482697287819999e-7 -9.245965430499998e-7 -1.005600436050000e-6
-1.091477633010000e-6 -1.182431722450000e-6 -1.278673920320000e-6 -1.380423343350000e-6
-1.487907292010000e-6 -1.601361543440000e-6 -1.721030654660000e-6 -1.847168276390000e-6
-1.980037477880000e-6 -2.119911083190000e-6 -2.267072019200000e-6 -2.421813675810000e-6
-2.584440278850000e-6 -2.755267275940001e-6 -2.934621735950000e-6 -3.122842762409999e-6
-3.320281921380000e-6 -3.527303684330001e-6 -3.744285886440001e-6 -3.971620201090000e-6
-4.209712630700000e-6 -4.458984014970000e-6 -4.719870556709999e-6 -4.992824366140000e-6
-5.278314024180001e-6 -5.576825165389999e-6 -5.888861081260001e-6 -6.214943344660001e-6
-6.555612455920000e-6 -6.911428511599999e-6 -7.282971896519999e-6 -7.670843999940001e-6
-8.075667956729998e-6 -8.498089414360003e-6 -8.938777326640000e-6 -9.398424775130001e-6
-9.877749819169999e-6 -1.037749637550000e-5 -1.089843512850000e-5 -1.144136447240000e-5
-1.200711148560000e-5 -1.259653293990000e-5 -1.321051634410000e-5 -1.384998102390000e-5
-1.451587924030000e-5 -1.520919734540000e-5 -1.593095698010000e-5 -1.668221631190000e-5
-1.746407131670000e-5 -1.827765710520000e-5 -1.912414929460000e-5 -2.000476542900000e-5
-2.092076644800000e-5 -2.187345820780000e-5 -2.286419305380000e-5 -2.389437144840000e-5
-2.496544365540000e-5 -2.607891148280000e-5 -2.723633008620000e-5 -2.843930983420000e-5
-2.968951823989999e-5 -3.098868195780000e-5 -3.233858885130000e-5 -3.374109013130000e-5
-3.519810256910000e-5 -3.671161078600000e-5 -3.828366962290000e-5 -3.991640659080000e-5
-4.161202440779999e-5 -4.337280362310000e-5 -4.520110533200000e-5 -4.709937398550000e-5
-4.907014029690000e-5 -5.111602424910000e-5 -5.323973820659999e-5 -5.544409013450001e-5
-5.773198692999999e-5 -6.010643786830000e-5 -6.257055816859999e-5 -6.512757268330000e-5
-6.778081971510000e-5 -7.053375496570000e-5 -7.338995562240001e-5 -7.635312458480000e-5
-7.942709483850001e-5 -8.261583398049998e-5 -8.592344890020001e-5 -8.935419062340001e-5
-9.291245932340001e-5 -9.660280950530000e-5 -1.004299553700000e-4 -1.043987763630000e-4
-1.085143229160000e-4 -1.127818223880000e-4 -1.172066852090000e-4 -1.217945112350000e-4
-1.265510963330000e-4 -1.314824391760000e-4 -1.365947482900000e-4 -1.418944493360000e-4
-1.473881926390000e-4 -1.530828609930000e-4 -1.589855777160000e-4 -1.651037149980000e-4
-1.714449025300000e-4 -1.780170364350000e-4 -1.848282885020000e-4 -1.918871157460000e-4
-1.992022702920000e-4 -2.067828096010000e-4 -2.146381070530000e-4 -2.227778628919999e-4
-2.312121155470000e-4 -2.399512533460000e-4 -2.490060266350000e-4 -2.583875603140000e-4
-2.681073668010000e-4 -2.781773594520000e-4 -2.886098664340000e-4 -2.994176450820000e-4
-3.106138967530000e-4 -3.222122821810000e-4 -3.342269373750000e-4 -3.466724900560000e-4
-3.595640766579999e-4 -3.729173599250000e-4 -3.867485471030000e-4 -4.010744087640000e-4
-4.159122982770000e-4 -4.312801719490000e-4 -4.471966098550001e-4 -4.636808373930000e-4
-4.807527475750001e-4 -4.984329240800000e-4 -5.167426651120000e-4 -5.357040080630000e-4
-5.553397550390001e-4 -5.756734992500000e-4 -5.967296523120002e-4 -6.185334724900001e-4
-6.411110939039999e-4 -6.644895567410001e-4 -6.886968385059999e-4 -7.137618863389999e-4
-7.397146504460000e-4 -7.665861186770000e-4 -7.944083522809999e-4 -8.232145228990001e-4
-8.530389508109998e-4 -8.839171445060000e-4 -9.158858415970000e-4 -9.489830511370000e-4
-9.832480973939999e-4 -1.018721665110000e-3 -1.055445846300000e-3 -1.093464188710000e-3
-1.132821745800000e-3 -1.173565128620000e-3 -1.215742559270000e-3 -1.259403926310000e-3
-1.304600842020000e-3 -1.351386701600000e-3 -1.399816744390000e-3 -1.449948117220000e-3
-1.501839939840000e-3 -1.555553372660000e-3 -1.611151686700000e-3 -1.668700336030000e-3
-1.728267032530000e-3 -1.789921823380000e-3 -1.853737170960000e-3 -1.919788035640000e-3
-1.988151961250000e-3 -2.058909163540000e-3 -2.132142621600000e-3 -2.207938172300000e-3
-2.286384608060001e-3 -2.367573777780000e-3 -2.451600691300000e-3 -2.538563627300000e-3
-2.628564244830000e-3 -2.721707698670000e-3 -2.818102758490000e-3 -2.917861932050000e-3
-3.021101592540000e-3 -3.127942110160000e-3 -3.238507988110000e-3 -3.352928003190001e-3
-3.471335351000000e-3 -3.593867796080000e-3 -3.720667826950000e-3 -3.851882816450000e-3
-3.987665187270000e-3 -4.128172583080000e-3 -4.273568045250000e-3 -4.424020195520001e-3
-4.579703424600000e-3 -4.740798087070000e-3 -4.907490702710000e-3 -5.079974164339999e-3
-5.258447952640001e-3 -5.443118357910000e-3 -5.634198709110000e-3 -5.831909610360000e-3
-6.036479185200000e-3 -6.248143328720000e-3 -6.467145967910000e-3 -6.693739330430000e-3
-6.928184222060001e-3 -7.170750313070000e-3 -7.421716433780000e-3 -7.681370879610000e-3
-7.950011725880000e-3 -8.227947152600001e-3 -8.515495779579998e-3 -8.812987012200001e-3
-9.120761397949998e-3 -9.439170994360001e-3 -9.768579748270000e-3 -1.010936388710000e-2
-1.046191232210000e-2 -1.082662706410000e-2 -1.120392365260000e-2 -1.159423159670000e-2
-1.199799483130000e-2 -1.241567218530000e-2 -1.284773786580000e-2 -1.329468195480000e-2
-1.375701092280000e-2 -1.423524815620000e-2 -1.472993450070000e-2 -1.524162882090000e-2
-1.577090857610000e-2 -1.631837041200000e-2 -1.688463077090000e-2 -1.747032651760000e-2
-1.807611558390000e-2 -1.870267763130000e-2 -1.935071473130000e-2 -2.002095206500000e-2
-2.071413864130000e-2 -2.143104803440000e-2 -2.217247914150000e-2 -2.293925695920000e-2
-2.373223338100000e-2 -2.455228801440000e-2 -2.540032901910000e-2 -2.627729396560000e-2
-2.718415071430000e-2 -2.812189831640000e-2 -2.909156793470000e-2 -3.009422378690000e-2
-3.113096410850000e-2 -3.220292213760001e-2 -3.331126712020000e-2 -3.445720533670000e-2
-3.564198114799999e-2 -3.686687806260000e-2 -3.813321982310000e-2 -3.944237151170000e-2
-4.079574067499999e-2 -4.219477846629999e-2 -4.364098080520000e-2 -4.513588955399999e-2
-4.668109370860000e-2 -4.827823060410000e-2 -4.992898713270000e-2 -5.163510097350001e-2
-5.339836183070000e-2 -5.522061268070000e-2 -5.710375102400000e-2 -5.904973014040000e-2
-6.106056034550001e-2 -6.313831024390000e-2 -6.528510797839999e-2 -6.750314246970000e-2
-6.979466464400000e-2 -7.216198864410001e-2 -7.460749301940001e-2 -7.713362189060000e-2
-7.974288608250001e-2 -8.243786422059999e-2 -8.522120378429999e-2 -8.809562211060001e-2
-9.106390734000001e-2 -9.412891929830000e-2 -9.729359030360001e-2 -1.005609258910000e-1
-1.039340054460000e-1 -1.074159827290000e-1 -1.110100862940000e-1 -1.147196197680000e-1
-1.185479620040000e-1 -1.224985670610000e-1 -1.265749640320000e-1 -1.307807566710000e-1
-1.351196228240000e-1 -1.395953136310000e-1 -1.442116524900000e-1 -1.489725337550000e-1
-1.538819211400000e-1 -1.589438458200000e-1 -1.641624041910000e-1 -1.695417552620000e-1
-1.750861176550000e-1 -1.807997661780000e-1 -1.866870279420000e-1 -1.927522779830000e-1
-1.989999343480000e-1 -2.054344526250000e-1 -2.120603198470000e-1 -2.188820477570000e-1
-2.259041653610000e-1 -2.331312107430000e-1 -2.405677220800000e-1 -2.482182278050000e-1
-2.560872358670000e-1 -2.641792220320000e-1 -2.724986171560000e-1 -2.810497933800000e-1
-2.898370491730000e-1 -2.988645931660000e-1 -3.081365266930000e-1 -3.176568249930000e-1
-3.274293169790000e-1 -3.374576635030000e-1 -3.477453340650000e-1 -3.582955818600000e-1
-3.691114171060000e-1 -3.801955785800000e-1 -3.915505032750000e-1 -4.031782941140000e-1
-4.150806856520000e-1 -4.272590076940000e-1 -4.397141467670000e-1 -4.524465053940000e-1
-4.654559591140000e-1 -4.787418112030000e-1 -4.923027450760000e-1 -5.061367743340000e-1
-5.202411904610001e-1 -5.346125081720000e-1 -5.492464084400000e-1 -5.641376792570000e-1
-5.792801541919999e-1 -5.946666488440000e-1 -6.102888953310000e-1 -6.261374749540000e-1
-6.422017492640000e-1 -6.584697897430000e-1 -6.749283064029999e-1 -6.915625756350000e-1
-7.083563676830000e-1 -7.252918742010000e-1 -7.423496363980000e-1 -7.595084743270000e-1
-7.767454179860001e-1 -7.940356409110000e-1 -8.113523970770000e-1 -8.286669619530000e-1
-8.459485786549999e-1 -8.631644102199999e-1 -8.802794990860001e-1 -8.972567349429999e-1
-9.140568321860000e-1 -9.306383182459999e-1 -9.469575341360001e-1 -9.629686485620001e-1
-9.786236869770001e-1 -9.938725769340000e-1 -1.008663211060000e0 -1.022941528910000e0
-1.036651618860000e0 -1.049735840980000e0 -1.062134971890000e0 -1.073788371920000e0
-1.084634175080000e0 -1.094609501780000e0 -1.103650693700000e0 -1.111693570260000e0
-1.118673705000000e0 -1.124526720370000e0 -1.129188598340000e0 -1.132596004190000e0
-1.134686620010000e0 -1.135399484460000e0 -1.134675334890000e0 -1.132456947920000e0
-1.128689475080000e0 -1.123320770590000e0 -1.116301709610000e0 -1.107586497080000e0
-1.097132969730000e0 -1.084902897200000e0 -1.070862292440000e0 -1.054981746940000e0
-1.037236812610000e0 -1.017608459450000e0 -9.960836464450001e-1 -9.726560513870000e-1
-9.473270142800001e-1 -9.201067559620000e-1 -8.910159390720001e-1 -8.600876393669999e-1
-8.273697900020000e-1 -7.929281463490000e-1 -7.568497905379999e-1 -7.192471485240000e-1
-6.802624230399999e-1 -6.400722478590000e-1 -5.988922374860000e-1 -5.569809385230000e-1
-5.146424853070000e-1 -4.722270307440001e-1 -4.301277842820000e-1 -3.887732834540000e-1
-3.486134272250000e-1 -3.100979325780000e-1 -2.736464410550000e-1 -2.396108144360000e-1
-2.082327019790000e-1 -1.796039653760000e-1 -1.536450971900000e-1 -1.301289600650000e-1
-1.087964928610000e-1 -8.954426888930001e-2 -7.236110940620000e-2 -5.722393705659999e-2
-4.409359201030000e-2 -3.291362791400000e-2 -2.360846087200000e-2 -1.608090971580000e-2
-1.020934364130000e-2 -5.844908125460000e-3 -2.809629480910000e-3 -8.965819309720001e-4
1.263245603190000e-4 5.071422212930000e-4 4.936264625040000e-4 3.092478577650000e-4
1.233295970850000e-4 2.245867460089999e-5 3.298375579320000e-7 0.000000000000000e0
0.000000000000000e0 0.000000000000000e0 0.000000000000000e0 0.000000000000000e0
0.000000000000000e0 0.000000000000000e0 0.000000000000000e0 0.000000000000000e0
0.000000000000000e0 0.000000000000000e0 0.000000000000000e0 0.000000000000000e0
0.000000000000000e0 0.000000000000000e0 0.000000000000000e0 0.000000000000000e0
0.000000000000000e0 0.000000000000000e0 0.000000000000000e0 0.000000000000000e0
0.000000000000000e0 0.000000000000000e0 0.000000000000000e0 0.000000000000000e0
0.000000000000000e0 0.000000000000000e0 0.000000000000000e0 0.000000000000000e0
0.000000000000000e0 0.000000000000000e0 0.000000000000000e0 0.000000000000000e0
0.000000000000000e0 0.000000000000000e0 0.000000000000000e0 0.000000000000000e0
0.000000000000000e0 0.000000000000000e0 0.000000000000000e0 0.000000000000000e0
0.000000000000000e0 0.000000000000000e0 0.000000000000000e0 0.000000000000000e0
0.000000000000000e0 0.000000000000000e0 0.000000000000000e0 0.000000000000000e0
0.000000000000000e0 0.000000000000000e0 0.000000000000000e0 0.000000000000000e0
0.000000000000000e0 0.000000000000000e0 0.000000000000000e0 0.000000000000000e0
0.000000000000000e0 0.000000000000000e0 0.000000000000000e0 0.000000000000000e0
0.000000000000000e0 0.000000000000000e0 0.000000000000000e0 0.000000000000000e0
0.000000000000000e0 0.000000000000000e0 0.000000000000000e0 0.000000000000000e0
0.000000000000000e0 0.000000000000000e0 0.000000000000000e0 0.000000000000000e0
0.000000000000000e0 0.000000000000000e0 0.000000000000000e0 0.000000000000000e0
0.000000000000000e0 0.000000000000000e0 0.000000000000000e0 0.000000000000000e0
0.000000000000000e0 0.000000000000000e0 0.000000000000000e0 0.000000000000000e0
0.000000000000000e0 0.000000000000000e0 0.000000000000000e0 0.000000000000000e0
0.000000000000000e0 0.000000000000000e0 0.000000000000000e0 0.000000000000000e0
0.000000000000000e0 0.000000000000000e0 0.000000000000000e0 0.000000000000000e0
0.000000000000000e0 0.000000000000000e0 0.000000000000000e0 0.000000000000000e0
0.000000000000000e0 0.000000000000000e0 0.000000000000000e0 0.000000000000000e0
0.000000000000000e0 0.000000000000000e0 0.000000000000000e0 0.000000000000000e0
0.000000000000000e0 0.000000000000000e0 0.000000000000000e0 0.000000000000000e0
0.000000000000000e0 0.000000000000000e0 0.000000000000000e0 0.000000000000000e0
0.000000000000000e0 0.000000000000000e0 0.000000000000000e0 0.000000000000000e0
0.000000000000000e0 0.000000000000000e0 0.000000000000000e0 0.000000000000000e0
0.000000000000000e0 0.000000000000000e0 0.000000000000000e0 0.000000000000000e0
0.000000000000000e0 0.000000000000000e0 0.000000000000000e0 0.000000000000000e0
0.000000000000000e0 0.000000000000000e0 0.000000000000000e0 0.000000000000000e0
0.000000000000000e0 0.000000000000000e0 0.000000000000000e0 0.000000000000000e0
0.000000000000000e0 0.000000000000000e0 0.000000000000000e0 0.000000000000000e0
0.000000000000000e0 0.000000000000000e0 0.000000000000000e0 0.000000000000000e0
0.000000000000000e0 0.000000000000000e0 0.000000000000000e0 0.000000000000000e0
0.000000000000000e0 0.000000000000000e0 0.000000000000000e0 0.000000000000000e0
0.000000000000000e0 0.000000000000000e0 0.000000000000000e0 0.000000000000000e0
0.000000000000000e0 0.000000000000000e0 0.000000000000000e0 0.000000000000000e0
0.000000000000000e0 0.000000000000000e0 0.000000000000000e0 0.000000000000000e0
0.000000000000000e0 0.000000000000000e0 0.000000000000000e0 0.000000000000000e0
0.000000000000000e0 0.000000000000000e0 0.000000000000000e0 0.000000000000000e0
0.000000000000000e0 0.000000000000000e0 0.000000000000000e0 0.000000000000000e0
0.000000000000000e0 0.000000000000000e0 0.000000000000000e0 0.000000000000000e0
0.000000000000000e0 0.000000000000000e0 0.000000000000000e0 0.000000000000000e0
0.000000000000000e0 0.000000000000000e0 0.000000000000000e0 0.000000000000000e0
0.000000000000000e0 0.000000000000000e0 0.000000000000000e0 0.000000000000000e0
0.000000000000000e0 0.000000000000000e0 0.000000000000000e0 0.000000000000000e0
0.000000000000000e0 0.000000000000000e0 0.000000000000000e0 0.000000000000000e0
0.000000000000000e0 0.000000000000000e0 0.000000000000000e0 0.000000000000000e0
0.000000000000000e0 0.000000000000000e0 0.000000000000000e0 0.000000000000000e0
0.000000000000000e0 0.000000000000000e0 0.000000000000000e0 0.000000000000000e0
0.000000000000000e0 0.000000000000000e0 0.000000000000000e0 0.000000000000000e0
0.000000000000000e0 0.000000000000000e0 0.000000000000000e0 0.000000000000000e0
0.000000000000000e0 0.000000000000000e0 0.000000000000000e0 0.000000000000000e0
0.000000000000000e0 0.000000000000000e0 0.000000000000000e0 0.000000000000000e0
0.000000000000000e0 0.000000000000000e0 0.000000000000000e0 0.000000000000000e0
0.000000000000000e0 0.000000000000000e0 0.000000000000000e0 0.000000000000000e0
0.000000000000000e0 0.000000000000000e0 0.000000000000000e0 0.000000000000000e0
0.000000000000000e0 0.000000000000000e0 0.000000000000000e0 0.000000000000000e0
0.000000000000000e0 0.000000000000000e0 0.000000000000000e0 0.000000000000000e0
0.000000000000000e0
</PP_QIJ.1.1>
<PP_QIJ.1.2 first_index="1" second_index="2" composite_index="2">
0.000000000000000e0 5.082550620130000e-10 2.067920398380000e-9 4.732920838120000e-9
8.559342595510000e-9 1.360551295680000e-8 1.993208280280001e-8 2.760211206640000e-8
3.668115822770001e-8 4.723736795400001e-8 5.934157199280000e-8 7.306738343359999e-8
8.849129945460000e-8 1.056928066780000e-7 1.247544902560000e-7 1.457621468280000e-7
1.688049014650000e-7 1.939753287640000e-7 2.213695782210000e-7 2.510875040350000e-7
2.832327995020000e-7 3.179131361550000e-7 3.552403078190000e-7 3.953303797489999e-7
4.383038430289999e-7 4.842857744180000e-7 5.334060018319999e-7 5.857992756540000e-7
6.416054460789999e-7 7.009696467110000e-7 7.640424846100000e-7 8.309802370390001e-7
9.019450551239999e-7 9.771051746759998e-7 1.056635134430000e-6 1.140716001930000e-6
1.229535607400000e-6 1.323288785760000e-6 1.422177627180000e-6 1.526411736450000e-6
1.636208501359999e-6 1.751793370590000e-6 1.873400141320000e-6 2.001271256860000e-6
2.135658114790000e-6 2.276821385830000e-6 2.425031343950000e-6 2.580568207950000e-6
2.743722495070000e-6 2.914795386939999e-6 3.094099108320001e-6 3.281957319150000e-6
3.478705520220000e-6 3.684691473060000e-6 3.900275634580001e-6 4.125831606750000e-6
4.361746602100000e-6 4.608421925450000e-6 4.866273472460000e-6 5.135732245569999e-6
5.417244887940001e-6 5.711274236070000e-6 6.018299891680000e-6 6.338818813490001e-6
6.673345929679999e-6 7.022414771730001e-6 7.386578130280002e-6 7.766408733939999e-6
8.162499951669998e-6 8.575466519650000e-6 9.005945293549999e-6 9.454596026859999e-6
9.922102176430002e-6 1.040917173600000e-5 1.091653809890000e-5 1.144496095020000e-5
1.199522719110000e-5 1.256815189370000e-5 1.316457929120000e-5 1.378538380010000e-5
1.443147108020000e-5 1.510377912970000e-5 1.580327941980000e-5 1.653097806710000e-5
1.728791704880000e-5 1.807517545790000e-5 1.889387080410000e-5 1.974516035810000e-5
2.063024254390000e-5 2.155035837870000e-5 2.250679296300000e-5 2.350087702270000e-5
2.453398850430000e-5 2.560755422560001e-5 2.672305158390000e-5 2.788201032310000e-5
2.908601436280000e-5 3.033670368969999e-5 3.163577631570000e-5 3.298499030340001e-5
3.438616586169999e-5 3.584118751470000e-5 3.735200634500001e-5 3.892064231500001e-5
4.054918666930001e-5 4.223980441930000e-5 4.399473691470001e-5 4.581630450380000e-5
4.770690928580001e-5 4.966903795880000e-5 5.170526476589999e-5 5.381825454439999e-5
5.601076587880001e-5 5.828565436500001e-5 6.064587598599999e-5 6.309449060500000e-5
6.563466557940001e-5 6.826967949989999e-5 7.100292605900000e-5 7.383791805300000e-5
7.677829152280000e-5 7.982781003810001e-5 8.299036912910001e-5 8.627000087229998e-5
8.967087863430001e-5 9.319732197950000e-5 9.685380174839999e-5 1.006449453100000e-4
1.045755419980000e-4 1.086505487300000e-4 1.128750958310000e-4 1.172544930410000e-4
1.217942357530000e-4 1.265000114440000e-4 1.313777063420000e-4 1.364334123210000e-4
1.416734340290000e-4 1.471042962700000e-4 1.527327516300000e-4 1.585657883810000e-4
1.646106386420000e-4 1.708747868340000e-4 1.773659784210000e-4 1.840922289490000e-4
1.910618334100000e-4 1.982833759120000e-4 2.057657396950000e-4 2.135181174870000e-4
2.215500222190000e-4 2.298712981080000e-4 2.384921321220000e-4 2.474230658410001e-4
2.566750077270000e-4 2.662592458160000e-4 2.761874608460000e-4 2.864717398400000e-4
2.971245901530000e-4 3.081589540090000e-4 3.195882235280000e-4 3.314262562820000e-4
3.436873913780000e-4 3.563864660950000e-4 3.695388331000000e-4 3.831603782470000e-4
3.972675389940000e-4 4.118773234530000e-4 4.270073300880000e-4 4.426757681020000e-4
4.589014785100001e-4 4.757039559499999e-4 4.931033712310001e-4 5.111205946610000e-4
5.297772201770002e-4 5.490955903000000e-4 5.690988219440001e-4 5.898108331170000e-4
6.112563705300000e-4 6.334610381560001e-4 6.564513267710000e-4 6.802546444950000e-4
7.048993483960000e-4 7.304147771600000e-4 7.568312848869998e-4 7.841802760459998e-4
8.124942416140001e-4 8.418067964620001e-4 8.721527180150000e-4 9.035679862249999e-4
9.360898249240000e-4 9.697567445730000e-4 1.004608586480000e-3 1.040686568510000e-3
1.078033332380000e-3 1.116692992560000e-3 1.156711186790000e-3 1.198135128380000e-3
1.241013660270000e-3 1.285397310920000e-3 1.331338352070000e-3 1.378890858540000e-3
1.428110769990000e-3 1.479055954760000e-3 1.531786276000000e-3 1.586363659830000e-3
1.642852166050000e-3 1.701318061020000e-3 1.761829893160000e-3 1.824458570910000e-3
1.889277443380000e-3 1.956362383660000e-3 2.025791875010000e-3 2.097647099840000e-3
2.172012031850000e-3 2.248973531070000e-3 2.328621442240000e-3 2.411048696450000e-3
2.496351416100000e-3 2.584629023520000e-3 2.675984353110000e-3 2.770523767220000e-3
2.868357275990000e-3 2.969598661070000e-3 3.074365603540000e-3 3.182779816010000e-3
3.294967179129999e-3 3.411057882649999e-3 3.531186571090000e-3 3.655492494250000e-3
3.784119662670000e-3 3.917217008210000e-3 4.054938549920000e-3 4.197443565270000e-3
4.344896767120000e-3 4.497468486320000e-3 4.655334860380000e-3 4.818678028170000e-3
4.987686331050000e-3 5.162554520390001e-3 5.343483971910000e-3 5.530682906799999e-3
5.724366620050000e-3 5.924757716040000e-3 6.132086351640000e-3 6.346590487119999e-3
6.568516144940000e-3 6.798117676830000e-3 7.035658039150000e-3 7.281409077080001e-3
7.535651817580000e-3 7.798676771519998e-3 8.070784245239999e-3 8.352284661680001e-3
8.643498891480000e-3 8.944758594180000e-3 9.256406569819999e-3 9.578797121290000e-3
9.912296427560001e-3 1.025728292810000e-2 1.061414771900000e-2 1.098329496040000e-2
1.136514229650000e-2 1.176012128750000e-2 1.216867785390000e-2 1.259127273470000e-2
1.302838195720000e-2 1.348049732140000e-2 1.394812689750000e-2 1.443179553730000e-2
1.493204539990000e-2 1.544943649200000e-2 1.598454722230000e-2 1.653797497100000e-2
1.711033667480000e-2 1.770226942650000e-2 1.831443109060000e-2 1.894750093400000e-2
1.960218027330000e-2 2.027919313720000e-2 2.097928694530000e-2 2.170323320320000e-2
2.245182821320000e-2 2.322589380200000e-2 2.402627806330000e-2 2.485385611810000e-2
2.570953088960000e-2 2.659423389460000e-2 2.750892605040000e-2 2.845459849710000e-2
2.943227343480000e-2 3.044300497550000e-2 3.148788000950000e-2 3.256801908440000e-2
3.368457729810000e-2 3.483874520390000e-2 3.603174972580000e-2 3.726485508570000e-2
3.853936373900000e-2 3.985661731820000e-2 4.121799758350000e-2 4.262492737870000e-2
4.407887158950000e-2 4.558133810500000e-2 4.713387877680001e-2 4.873809037680000e-2
5.039561554859999e-2 5.210814375120000e-2 5.387741219130000e-2 5.570520674079999e-2
5.759336283680000e-2 5.954376635870000e-2 6.155835447890000e-2 6.363911648289999e-2
6.578809455190000e-2 6.800738450479999e-2 7.029913649110000e-2 7.266555563070000e-2
7.510890259080000e-2 7.763149409479999e-2 8.023570335340001e-2 8.292396040970001e-2
8.569875238910001e-2 8.856262364179999e-2 9.151817577029998e-2 9.456806752610001e-2
9.771501456650000e-2 1.009617890540000e-1 1.043112190900000e-1 1.077661879530000e-1
1.113296331520000e-1 1.150045452370000e-1 1.187939663890000e-1 1.227009887420000e-1
1.267287524200000e-1 1.308804432760000e-1 1.351592902960000e-1 1.395685626470000e-1
1.441115663490000e-1 1.487916405160000e-1 1.536121531750000e-1 1.585764965830000e-1
1.636880820500000e-1 1.689503342000000e-1 1.743666846470000e-1 1.799405650390000e-1
1.856753994290000e-1 1.915745959270000e-1 1.976415375830000e-1 2.038795724560000e-1
2.102920028170000e-1 2.168820734240000e-1 2.236529588260000e-1 2.306077496280000e-1
2.377494376610000e-1 2.450808999960000e-1 2.526048817410000e-1 2.603239775510000e-1
2.682406117930000e-1 2.763570172950000e-1 2.846752126170000e-1 2.931969777780000e-1
3.019238283670000e-1 3.108569879940000e-1 3.199973589950000e-1 3.293454913550000e-1
3.389015497820000e-1 3.486652788980000e-1 3.586359664870000e-1 3.688124047860000e-1
3.791928497890000e-1 3.897749785450000e-1 4.005558444680000e-1 4.115318306650000e-1
4.226986013199999e-1 4.340510512050000e-1 4.455832533780000e-1 4.572884052020000e-1
4.691587728000000e-1 4.811856341420000e-1 4.933592209640000e-1 5.056686597740000e-1
5.181019122530000e-1 5.306457153889999e-1 5.432855217709999e-1 5.560054404840001e-1
5.687881791580000e-1 5.816149877470000e-1 5.944656047240001e-1 6.073182064250000e-1
6.201493603650000e-1 6.329339834220001e-1 6.456453058670000e-1 6.582548422980000e-1
6.707323705960000e-1 6.830459201080000e-1 6.951617703129999e-1 7.070444612680000e-1
7.186568171830000e-1 7.299599844719999e-1 7.409134856180000e-1 7.514752901640001e-1
7.616019040520000e-1 7.712484784160000e-1 7.803689387780000e-1 7.889161353670000e-1
7.968420150020000e-1 8.040978146260001e-1 8.106342761640001e-1 8.164018818450000e-1
8.213511085990000e-1 8.254326994230000e-1 8.285979489139999e-1 8.307989993650001e-1
8.319891429660000e-1 8.321231248160000e-1 8.311574405929999e-1 8.290506219710000e-1
8.257635022460001e-1 8.212594541870001e-1 8.155045920679999e-1 8.084679301480000e-1
8.001214908360000e-1 7.904403574450000e-1 7.794026691150000e-1 7.669895592620000e-1
7.531850441090000e-1 7.379758745679999e-1 7.213513732650000e-1 7.033032888479999e-1
6.838257119950000e-1 6.629151115410000e-1 6.405705646010000e-1 6.167942707030000e-1
5.915924557160000e-1 5.649767851230000e-1 5.369664153870000e-1 5.075908137210000e-1
4.768934659000000e-1 4.449365633860000e-1 4.118067079939999e-1 3.776215865170000e-1
3.425374398700000e-1 3.067569721850000e-1 2.705371064840000e-1 2.341956903300000e-1
1.981158899160000e-1 1.627466009900000e-1 1.285967899920000e-1 9.622133785510000e-2
6.619583195740000e-2 3.907807304870000e-2 1.535520994860000e-2 -4.622025644489999e-3
-2.071163786640000e-2 -3.304434789910000e-2 -4.205011821790000e-2 -4.839523290900000e-2
-5.274263951120000e-2 -5.538232097069999e-2 -5.639873282300000e-2 -5.589024967080000e-2
-5.397938907570000e-2 -5.081525434190000e-2 -4.657599272920000e-2 -4.147078751920000e-2
-3.574061066350000e-2 -2.965661439720000e-2 -2.351466284060000e-2 -1.762418510950000e-2
-1.228941809290000e-2 -7.781486172609999e-3 -4.301106610850000e-3 -1.934799120340000e-3
-6.135656814180001e-4 -9.405052322840001e-5 -1.219873791820000e-6 0.000000000000000e0
0.000000000000000e0 0.000000000000000e0 0.000000000000000e0 0.000000000000000e0
0.000000000000000e0 0.000000000000000e0 0.000000000000000e0 0.000000000000000e0
0.000000000000000e0 0.000000000000000e0 0.000000000000000e0 0.000000000000000e0
0.000000000000000e0 0.000000000000000e0 0.000000000000000e0 0.000000000000000e0
0.000000000000000e0 0.000000000000000e0 0.000000000000000e0 0.000000000000000e0
0.000000000000000e0 0.000000000000000e0 0.000000000000000e0 0.000000000000000e0
0.000000000000000e0 0.000000000000000e0 0.000000000000000e0 0.000000000000000e0
0.000000000000000e0 0.000000000000000e0 0.000000000000000e0 0.000000000000000e0
0.000000000000000e0 0.000000000000000e0 0.000000000000000e0 0.000000000000000e0
0.000000000000000e0 0.000000000000000e0 0.000000000000000e0 0.000000000000000e0
0.000000000000000e0 0.000000000000000e0 0.000000000000000e0 0.000000000000000e0
0.000000000000000e0 0.000000000000000e0 0.000000000000000e0 0.000000000000000e0
0.000000000000000e0 0.000000000000000e0 0.000000000000000e0 0.000000000000000e0
0.000000000000000e0 0.000000000000000e0 0.000000000000000e0 0.000000000000000e0
0.000000000000000e0 0.000000000000000e0 0.000000000000000e0 0.000000000000000e0
0.000000000000000e0 0.000000000000000e0 0.000000000000000e0 0.000000000000000e0
0.000000000000000e0 0.000000000000000e0 0.000000000000000e0 0.000000000000000e0
0.000000000000000e0 0.000000000000000e0 0.000000000000000e0 0.000000000000000e0
0.000000000000000e0 0.000000000000000e0 0.000000000000000e0 0.000000000000000e0
0.000000000000000e0 0.000000000000000e0 0.000000000000000e0 0.000000000000000e0
0.000000000000000e0 0.000000000000000e0 0.000000000000000e0 0.000000000000000e0
0.000000000000000e0 0.000000000000000e0 0.000000000000000e0 0.000000000000000e0
0.000000000000000e0 0.000000000000000e0 0.000000000000000e0 0.000000000000000e0
0.000000000000000e0 0.000000000000000e0 0.000000000000000e0 0.000000000000000e0
0.000000000000000e0 0.000000000000000e0 0.000000000000000e0 0.000000000000000e0
0.000000000000000e0 0.000000000000000e0 0.000000000000000e0 0.000000000000000e0
0.000000000000000e0 0.000000000000000e0 0.000000000000000e0 0.000000000000000e0
0.000000000000000e0 0.000000000000000e0 0.000000000000000e0 0.000000000000000e0
0.000000000000000e0 0.000000000000000e0 0.000000000000000e0 0.000000000000000e0
0.000000000000000e0 0.000000000000000e0 0.000000000000000e0 0.000000000000000e0
0.000000000000000e0 0.000000000000000e0 0.000000000000000e0 0.000000000000000e0
0.000000000000000e0 0.000000000000000e0 0.000000000000000e0 0.000000000000000e0
0.000000000000000e0 0.000000000000000e0 0.000000000000000e0 0.000000000000000e0
0.000000000000000e0 0.000000000000000e0 0.000000000000000e0 0.000000000000000e0
0.000000000000000e0 0.000000000000000e0 0.000000000000000e0 0.000000000000000e0
0.000000000000000e0 0.000000000000000e0 0.000000000000000e0 0.000000000000000e0
0.000000000000000e0 0.000000000000000e0 0.000000000000000e0 0.000000000000000e0
0.000000000000000e0 0.000000000000000e0 0.000000000000000e0 0.000000000000000e0
0.000000000000000e0 0.000000000000000e0 0.000000000000000e0 0.000000000000000e0
0.000000000000000e0 0.000000000000000e0 0.000000000000000e0 0.000000000000000e0
0.000000000000000e0 0.000000000000000e0 0.000000000000000e0 0.000000000000000e0
0.000000000000000e0 0.000000000000000e0 0.000000000000000e0 0.000000000000000e0
0.000000000000000e0 0.000000000000000e0 0.000000000000000e0 0.000000000000000e0
0.000000000000000e0 0.000000000000000e0 0.000000000000000e0 0.000000000000000e0
0.000000000000000e0 0.000000000000000e0 0.000000000000000e0 0.000000000000000e0
0.000000000000000e0 0.000000000000000e0 0.000000000000000e0 0.000000000000000e0
0.000000000000000e0 0.000000000000000e0 0.000000000000000e0 0.000000000000000e0
0.000000000000000e0 0.000000000000000e0 0.000000000000000e0 0.000000000000000e0
0.000000000000000e0 0.000000000000000e0 0.000000000000000e0 0.000000000000000e0
0.000000000000000e0 0.000000000000000e0 0.000000000000000e0 0.000000000000000e0
0.000000000000000e0 0.000000000000000e0 0.000000000000000e0 0.000000000000000e0
0.000000000000000e0 0.000000000000000e0 0.000000000000000e0 0.000000000000000e0
0.000000000000000e0 0.000000000000000e0 0.000000000000000e0 0.000000000000000e0
0.000000000000000e0 0.000000000000000e0 0.000000000000000e0 0.000000000000000e0
0.000000000000000e0 0.000000000000000e0 0.000000000000000e0 0.000000000000000e0
0.000000000000000e0 0.000000000000000e0 0.000000000000000e0 0.000000000000000e0
0.000000000000000e0 0.000000000000000e0 0.000000000000000e0 0.000000000000000e0
0.000000000000000e0 0.000000000000000e0 0.000000000000000e0 0.000000000000000e0
0.000000000000000e0 0.000000000000000e0 0.000000000000000e0 0.000000000000000e0
0.000000000000000e0 0.000000000000000e0 0.000000000000000e0 0.000000000000000e0
0.000000000000000e0 0.000000000000000e0 0.000000000000000e0 0.000000000000000e0
0.000000000000000e0 0.000000000000000e0 0.000000000000000e0 0.000000000000000e0
0.000000000000000e0 0.000000000000000e0 0.000000000000000e0 0.000000000000000e0
0.000000000000000e0
</PP_QIJ.1.2>
<PP_QIJ.1.3 first_index="1" second_index="3" composite_index="4">
0.000000000000000e0 2.217531133250001e-15 1.819901497190001e-14 6.301457577680001e-14
1.532525712770000e-13 3.071280869590000e-13 5.445981692129998e-13 8.874841872499999e-13
1.359601735390000e-12 1.986898510160000e-12 2.797600620870000e-12 3.822367817420000e-12
5.094458146350000e-12 6.649902573950000e-12 8.527690145229998e-12 1.076996427900000e-11
1.342223083180000e-11 1.653357859980001e-11 2.015691296200000e-11 2.434920340900000e-11
2.917174574280001e-11 3.469043977210001e-11 4.097608337860001e-11 4.810468387360000e-11
5.615778761450001e-11 6.522282890750000e-11 7.539349927350002e-11 8.677013821760003e-11
9.946014670209999e-11 1.135784245880000e-10 1.292478333830000e-10 1.465996856990000e-10
1.657742629030000e-10 1.869213625380000e-10 2.102008771370000e-10 2.357834062020000e-10
2.638509031489999e-10 2.945973591750000e-10 3.282295260710000e-10 3.649676801310000e-10
4.050464294219999e-10 4.487155667880000e-10 4.962409711279999e-10 5.479055595609999e-10
6.040102932969998e-10 6.648752401529999e-10 7.308406967960001e-10 8.022683740010001e-10
8.795426483589999e-10 9.630718840569997e-10 1.053289828560000e-9 1.150657086240000e-9
1.255662674120000e-9 1.368825664340000e-9 1.490696917920000e-9 1.621860914850000e-9
1.762937685750000e-9 1.914584850580001e-9 2.077499770150000e-9 2.252421816719999e-9
2.440134769920000e-9 2.641469344859999e-9 2.857305859709999e-9 3.088577049980000e-9
3.336271037770000e-9 3.601434464040000e-9 3.885175792950001e-9 4.188668797340000e-9
4.513156235249999e-9 4.859953727680000e-9 5.230453848450002e-9 5.626130437540001e-9
6.048543149970000e-9 6.499342252810002e-9 6.980273683689999e-9 7.493184384790002e-9
8.040027927119999e-9 8.622870440669999e-9 9.243896866709999e-9 9.905417549649998e-9
1.060987518650000e-8 1.135985215310000e-8 1.215807822720000e-8 1.300743873000000e-8
1.391098310770000e-8 1.487193397740000e-8 1.589369666130000e-8 1.697986923670000e-8
1.813425312700001e-8 1.936086426500000e-8 2.066394485700000e-8 2.204797578130000e-8
2.351768965370000e-8 2.507808459600001e-8 2.673443874460000e-8 2.849232553990000e-8
3.035762983489999e-8 3.233656487100001e-8 3.443569016230001e-8 3.666193034070000e-8
3.902259501030000e-8 4.152539966520000e-8 4.417848772830000e-8 4.699045376839999e-8
4.997036796050000e-8 5.312780185290000e-8 5.647285551230000e-8 6.001618611830000e-8
6.376903808529999e-8 6.774327479160000e-8 7.195141200210000e-8 7.640665307210000e-8
8.112292602900000e-8 8.611492262870000e-8 9.139813949339999e-8 9.698892143820000e-8
1.029045071050000e-7 1.091630770240000e-7 1.157838042280000e-7 1.227869075620000e-7
1.301937078269999e-7 1.380266868930000e-7 1.463095499720000e-7 1.550672911780000e-7
1.643262625750000e-7 1.741142468880000e-7 1.844605340670000e-7 1.953960019090000e-7
2.069532009550000e-7 2.191664438849999e-7 2.320718996420000e-7 2.457076925460000e-7
2.601140066500000e-7 2.753331956150000e-7 2.914098984039999e-7 3.083911610820000e-7
3.263265650690000e-7 3.452683621569999e-7 3.652716166659999e-7 3.863943551089999e-7
4.086977237580000e-7 4.322461545220001e-7 4.571075395830000e-7 4.833534152480000e-7
5.110591554850000e-7 5.403041756790000e-7 5.711721471090000e-7 6.037512227450000e-7
6.381342749279999e-7 6.744191455699999e-7 7.127089095279999e-7 7.531121518440001e-7
7.957432595679998e-7 8.407227289370001e-7 8.881774887090000e-7 9.382412404980000e-7
9.910548169970001e-7 1.046766559030000e-6 1.105532712400000e-6 1.167517845600000e-6
1.232895289470000e-6 1.301847599860000e-6 1.374567044660000e-6 1.451256116350000e-6
1.532128071430000e-6 1.617407498110000e-6 1.707330913810000e-6 1.802147393970000e-6
1.902119233730000e-6 2.007522644390000e-6 2.118648486200000e-6 2.235803039650000e-6
2.359308817010000e-6 2.489505416380000e-6 2.626750420410000e-6 2.771420341990000e-6
2.923911619400000e-6 3.084641663420000e-6 3.254049959170000e-6 3.432599225460000e-6
3.620776634720001e-6 3.819095096510000e-6 4.028094608070000e-6 4.248343675210000e-6
4.480440807400000e-6 4.725016090660000e-6 4.982732842460001e-6 5.254289352760000e-6
5.540420715710002e-6 5.841900756670001e-6 6.159544059449999e-6 6.494208098980002e-6
6.846795484769999e-6 7.218256321040000e-6 7.609590689259998e-6 8.021851259700002e-6
8.456146038409997e-6 8.913641256629997e-6 9.395564410070001e-6 9.903207455590001e-6
1.043793017340000e-5 1.100116370350000e-5 1.159441426460000e-5 1.221926706600000e-5
1.287739042090000e-5 1.357054007280000e-5 1.430056374460000e-5 1.506940592310000e-5
1.587911288950000e-5 1.673183800930000e-5 1.762984729460000e-5 1.857552525280000e-5
1.957138103560000e-5 2.062005490420000e-5 2.172432502660000e-5 2.288711462310000e-5
2.411149947850000e-5 2.540071583920000e-5 2.675816871400000e-5 2.818744060000000e-5
2.969230065340000e-5 3.127671432920001e-5 3.294485351220000e-5 3.470110716390000e-5
3.655009251150000e-5 3.849666680550001e-5 4.054593967480001e-5 4.270328610760000e-5
4.497436009129999e-5 4.736510894140000e-5 4.988178835550000e-5 5.253097822679999e-5
5.531959925459999e-5 5.825493039170000e-5 6.134462716770001e-5 6.459674093340001e-5
6.801973906870000e-5 7.162252620190001e-5 7.541446648929999e-5 7.940540700560001e-5
8.360570229940000e-5 8.802624016770000e-5 9.267846870999998e-5 9.757442472119999e-5
1.027267634870000e-4 1.081487900470000e-4 1.138544920000000e-4 1.198585739120000e-4
1.261764934140000e-4 1.328244990640000e-4 1.398196700480000e-4 1.471799578150000e-4
1.549242297260000e-4 1.630723148130000e-4 1.716450517450000e-4 1.806643390930000e-4
1.901531880030000e-4 2.001357773850000e-4 2.106375117190000e-4 2.216850816090000e-4
2.333065271820000e-4 2.455313044830000e-4 2.583903549680000e-4 2.719161782360000e-4
2.861429081450000e-4 3.011063924370000e-4 3.168442760320000e-4 3.333960881209999e-4
3.508033332380000e-4 3.691095864380000e-4 3.883605927760001e-4 4.086043712190000e-4
4.298913231919999e-4 4.522743459139999e-4 4.758089507010000e-4 5.005533864340000e-4
5.265687683559999e-4 5.539192123970000e-4 5.826719752200001e-4 6.128976001690000e-4
6.446700693210000e-4 6.780669618379999e-4 7.131696188090000e-4 7.500633147860000e-4
7.888374362010000e-4 8.295856668600001e-4 8.724061807160000e-4 9.174018420880001e-4
9.646804135359998e-4 1.014354771540000e-3 1.066543130200000e-3 1.121369273050000e-3
1.178962793210000e-3 1.239459342020000e-3 1.303000886170000e-3 1.369735973640000e-3
1.439820008320000e-3 1.513415533620000e-3 1.590692524960000e-3 1.671828691210000e-3
1.757009785170000e-3 1.846429922980000e-3 1.940291912490000e-3 2.038807590410000e-3
2.142198168220000e-3 2.250694586650000e-3 2.364537878520000e-3 2.483979539690000e-3
2.609281907850000e-3 2.740718548840000e-3 2.878574650020000e-3 3.023147420350000e-3
3.174746496580000e-3 3.333694355080000e-3 3.500326728590000e-3 3.674993027289999e-3
3.858056763430000e-3 4.049895978690000e-3 4.250903673440000e-3 4.461488237010000e-3
4.682073877950000e-3 4.913101053379999e-3 5.155026896260000e-3 5.408325639739999e-3
5.673489037230000e-3 5.951026777490000e-3 6.241466893390001e-3 6.545356163660000e-3
6.863260506469999e-3 7.195765364289999e-3 7.543476079360000e-3 7.907018259260001e-3
8.287038132559999e-3 8.684202894650001e-3 9.099201044300001e-3 9.532742711979999e-3
9.985559981540000e-3 1.045840720750000e-2 1.095206133070000e-2 1.146732219690000e-2
1.200501288240000e-2 1.256598003370000e-2 1.315109422790000e-2 1.376125036420000e-2
1.439736809580000e-2 1.506039231670000e-2 1.575129371790000e-2 1.647106943080000e-2
1.722074377830000e-2 1.800136915830000e-2 1.881402708600000e-2 1.965982942600000e-2
2.053991985090000e-2 2.145547556490000e-2 2.240770933830000e-2 2.339787190260000e-2
2.442725476310000e-2 2.549719348990000e-2 2.660907155760000e-2 2.776432480710000e-2
2.896444661400000e-2 3.021099385069999e-2 3.150559374090000e-2 3.284995170920000e-2
3.424586033620000e-2 3.569520953620000e-2 3.719999808130000e-2 3.876234659660000e-2
4.038451216030000e-2 4.206890463740000e-2 4.381810488199999e-2 4.563488493190000e-2
4.752223031980000e-2 4.948336460660000e-2 5.152177623180000e-2 5.364124774810000e-2
5.584588748090001e-2 5.814016361189999e-2 6.052894063949999e-2 6.301751810840001e-2
6.561167142570000e-2 6.831769449860001e-2 7.114244381960000e-2 7.409338350779999e-2
7.717863067180000e-2 8.040700029690001e-2 8.378804867460000e-2 8.733211418290001e-2
9.105035398869999e-2 9.495477498929999e-2 9.905825701800000e-2 1.033745660390000e-1
1.079183547210000e-1 1.127051474440000e-1 1.177513064340000e-1 1.230739753560000e-1
1.286909963870000e-1 1.346207964270000e-1 1.408822378670000e-1 1.474944291270000e-1
1.544764900580000e-1 1.618472673360000e-1 1.696249952070000e-1 1.778268973190000e-1
1.864687261300000e-1 1.955642374000000e-1 2.051245987400000e-1 2.151577331300000e-1
2.256676008040000e-1 2.366534260750000e-1 2.481088794700000e-1 2.600212302460000e-1
2.723704897540000e-1 2.851285724950000e-1 2.982585088030000e-1 3.117137510320000e-1
3.254376236330000e-1 3.393629763440000e-1 3.534121086220000e-1 3.674970416790000e-1
3.815202215290000e-1 3.953757411900000e-1 4.089511714560000e-1 4.221300859370000e-1
4.347953554700000e-1 4.468332674400000e-1 4.581384944280000e-1 4.686198914000000e-1
4.782070383720000e-1 4.868573636770000e-1 4.945635792290000e-1 5.013610324600000e-1
5.073344302190001e-1 5.126232210340000e-1 5.174247405830000e-1 5.219940435140000e-1
5.266391825390000e-1 5.317105825310000e-1 5.375831344510001e-1 5.446297572930000e-1
5.531855175540001e-1 5.635020433470000e-1 5.756930254980000e-1 5.896731677380000e-1
6.050951264620000e-1 6.212918166680001e-1 6.372349021310000e-1 6.515240866080000e-1
6.624253853770000e-1 6.679787074980000e-1 6.661936992750000e-1 6.553442745040000e-1
6.343506529310000e-1 6.031935678890000e-1 5.632237660700000e-1 5.170882152870000e-1
4.677681062500000e-1 4.167216184590000e-1 3.645580413700000e-1 3.120128006510000e-1
2.599992346560000e-1 2.095983709930000e-1 1.620237301030000e-1 1.185551474570000e-1
8.043795918580001e-2 4.874851542650000e-2 2.423448031410000e-2 7.149079115320001e-3
-2.887987292370000e-3 -6.955602849280000e-3 -6.763660569719999e-3 -4.395658588790000e-3
-1.836058924280000e-3 -3.511793223620000e-4 -4.906419393570001e-6 0.000000000000000e0
0.000000000000000e0 0.000000000000000e0 0.000000000000000e0 0.000000000000000e0
0.000000000000000e0 0.000000000000000e0 0.000000000000000e0 0.000000000000000e0
0.000000000000000e0 0.000000000000000e0 0.000000000000000e0 0.000000000000000e0
0.000000000000000e0 0.000000000000000e0 0.000000000000000e0 0.000000000000000e0
0.000000000000000e0 0.000000000000000e0 0.000000000000000e0 0.000000000000000e0
0.000000000000000e0 0.000000000000000e0 0.000000000000000e0 0.000000000000000e0
0.000000000000000e0 0.000000000000000e0 0.000000000000000e0 0.000000000000000e0
0.000000000000000e0 0.000000000000000e0 0.000000000000000e0 0.000000000000000e0
0.000000000000000e0 0.000000000000000e0 0.000000000000000e0 0.000000000000000e0
0.000000000000000e0 0.000000000000000e0 0.000000000000000e0 0.000000000000000e0
0.000000000000000e0 0.000000000000000e0 0.000000000000000e0 0.000000000000000e0
0.000000000000000e0 0.000000000000000e0 0.000000000000000e0 0.000000000000000e0
0.000000000000000e0 0.000000000000000e0 0.000000000000000e0 0.000000000000000e0
0.000000000000000e0 0.000000000000000e0 0.000000000000000e0 0.000000000000000e0
0.000000000000000e0 0.000000000000000e0 0.000000000000000e0 0.000000000000000e0
0.000000000000000e0 0.000000000000000e0 0.000000000000000e0 0.000000000000000e0
0.000000000000000e0 0.000000000000000e0 0.000000000000000e0 0.000000000000000e0
0.000000000000000e0 0.000000000000000e0 0.000000000000000e0 0.000000000000000e0
0.000000000000000e0 0.000000000000000e0 0.000000000000000e0 0.000000000000000e0
0.000000000000000e0 0.000000000000000e0 0.000000000000000e0 0.000000000000000e0
0.000000000000000e0 0.000000000000000e0 0.000000000000000e0 0.000000000000000e0
0.000000000000000e0 0.000000000000000e0 0.000000000000000e0 0.000000000000000e0
0.000000000000000e0 0.000000000000000e0 0.000000000000000e0 0.000000000000000e0
0.000000000000000e0 0.000000000000000e0 0.000000000000000e0 0.000000000000000e0
0.000000000000000e0 0.000000000000000e0 0.000000000000000e0 0.000000000000000e0
0.000000000000000e0 0.000000000000000e0 0.000000000000000e0 0.000000000000000e0
0.000000000000000e0 0.000000000000000e0 0.000000000000000e0 0.000000000000000e0
0.000000000000000e0 0.000000000000000e0 0.000000000000000e0 0.000000000000000e0
0.000000000000000e0 0.000000000000000e0 0.000000000000000e0 0.000000000000000e0
0.000000000000000e0 0.000000000000000e0 0.000000000000000e0 0.000000000000000e0
0.000000000000000e0 0.000000000000000e0 0.000000000000000e0 0.000000000000000e0
0.000000000000000e0 0.000000000000000e0 0.000000000000000e0 0.000000000000000e0
0.000000000000000e0 0.000000000000000e0 0.000000000000000e0 0.000000000000000e0
0.000000000000000e0 0.000000000000000e0 0.000000000000000e0 0.000000000000000e0
0.000000000000000e0 0.000000000000000e0 0.000000000000000e0 0.000000000000000e0
0.000000000000000e0 0.000000000000000e0 0.000000000000000e0 0.000000000000000e0
0.000000000000000e0 0.000000000000000e0 0.000000000000000e0 0.000000000000000e0
0.000000000000000e0 0.000000000000000e0 0.000000000000000e0 0.000000000000000e0
0.000000000000000e0 0.000000000000000e0 0.000000000000000e0 0.000000000000000e0
0.000000000000000e0 0.000000000000000e0 0.000000000000000e0 0.000000000000000e0
0.000000000000000e0 0.000000000000000e0 0.000000000000000e0 0.000000000000000e0
0.000000000000000e0 0.000000000000000e0 0.000000000000000e0 0.000000000000000e0
0.000000000000000e0 0.000000000000000e0 0.000000000000000e0 0.000000000000000e0
0.000000000000000e0 0.000000000000000e0 0.000000000000000e0 0.000000000000000e0
0.000000000000000e0 0.000000000000000e0 0.000000000000000e0 0.000000000000000e0
0.000000000000000e0 0.000000000000000e0 0.000000000000000e0 0.000000000000000e0
0.000000000000000e0 0.000000000000000e0 0.000000000000000e0 0.000000000000000e0
0.000000000000000e0 0.000000000000000e0 0.000000000000000e0 0.000000000000000e0
0.000000000000000e0 0.000000000000000e0 0.000000000000000e0 0.000000000000000e0
0.000000000000000e0 0.000000000000000e0 0.000000000000000e0 0.000000000000000e0
0.000000000000000e0 0.000000000000000e0 0.000000000000000e0 0.000000000000000e0
0.000000000000000e0 0.000000000000000e0 0.000000000000000e0 0.000000000000000e0
0.000000000000000e0 0.000000000000000e0 0.000000000000000e0 0.000000000000000e0
0.000000000000000e0 0.000000000000000e0 0.000000000000000e0 0.000000000000000e0
0.000000000000000e0 0.000000000000000e0 0.000000000000000e0 0.000000000000000e0
0.000000000000000e0 0.000000000000000e0 0.000000000000000e0 0.000000000000000e0
0.000000000000000e0 0.000000000000000e0 0.000000000000000e0 0.000000000000000e0
0.000000000000000e0 0.000000000000000e0 0.000000000000000e0 0.000000000000000e0
0.000000000000000e0 0.000000000000000e0 0.000000000000000e0 0.000000000000000e0
0.000000000000000e0 0.000000000000000e0 0.000000000000000e0 0.000000000000000e0
0.000000000000000e0 0.000000000000000e0 0.000000000000000e0 0.000000000000000e0
0.000000000000000e0 0.000000000000000e0 0.000000000000000e0 0.000000000000000e0
0.000000000000000e0 0.000000000000000e0 0.000000000000000e0 0.000000000000000e0
0.000000000000000e0
</PP_QIJ.1.3>
<PP_QIJ.1.4 first_index="1" second_index="4" composite_index="7">
0.000000000000000e0 -3.780342881850001e-15 -3.102482563450000e-14 -1.074242881260000e-13
-2.612577835310001e-13 -5.235775344570001e-13 -9.284053771800004e-13 -1.512941358720000e-12
-2.317785188460000e-12 -3.387171284850000e-12 -4.769218199160000e-12 -6.516193241110003e-12
-8.684793177220001e-12 -1.133644192080000e-11 -1.453760618280000e-11 -1.836013010750001e-11
-2.288158997120000e-11 -2.818567008420000e-11 -3.436256109640000e-11 -4.150938197440001e-11
-4.973062698809999e-11 -5.913863911610001e-11 -6.985411135710001e-11 -8.200661751849998e-11
-9.573517413519999e-11 -1.111888352640000e-10 -1.285273219970000e-10 -1.479216886270000e-10
-1.695550275250000e-10 -1.936232148770000e-10 -2.203356995530000e-10 -2.499163375260001e-10
-2.826042743460000e-10 -3.186548783550001e-10 -3.583407274499999e-10 -4.019526523459999e-10
-4.498008394839998e-10 -5.022159968640000e-10 -5.595505862760000e-10 -6.221801255920000e-10
-6.905045649820001e-10 -7.649497410979999e-10 -8.459689135449999e-10 -9.340443881200001e-10
-1.029689231600000e-9 -1.133449083100000e-9 -1.245904067250000e-9 -1.367670814810000e-9
-1.499404596580000e-9 -1.641801576720000e-9 -1.795601192130000e-9 -1.961588664660000e-9
-2.140597653350000e-9 -2.333513054500000e-9 -2.541273957370000e-9 -2.764876764119999e-9
-3.005378482940000e-9 -3.263900203590000e-9 -3.541630765420000e-9 -3.839830628200000e-9
-4.159835956740000e-9 -4.503062930970001e-9 -4.871012293470000e-9 -5.265274147510000e-9
-5.687533018990000e-9 -6.139573196470000e-9 -6.623284364490000e-9 -7.140667545770000e-9
-7.693841369030001e-9 -8.285048680010000e-9 -8.916663514020000e-9 -9.591198449599998e-9
-1.031131236360000e-8 -1.107981860960000e-8 -1.189969364160000e-8 -1.277408610820000e-8
-1.370632644110000e-8 -1.469993696530000e-8 -1.575864255840000e-8 -1.688638188930000e-8
-1.808731926600000e-8 -1.936585712640000e-8 -2.072664920520000e-8 -2.217461441450000e-8
-2.371495147490000e-8 -2.535315433770000e-8 -2.709502844090000e-8 -2.894670784270001e-8
-3.091467327969999e-8 -3.300577119910000e-8 -3.522723381670001e-8 -3.758670025549999e-8
-4.009223882260000e-8 -4.275237048379999e-8 -4.557609360190000e-8 -4.857291000369999e-8
-5.175285244760000e-8 -5.512651356570000e-8 -5.870507635910000e-8 -6.250034632899998e-8
-6.652478532990001e-8 -7.079154723649999e-8 -7.531451552130002e-8 -8.010834284320000e-8
-8.518849275400003e-8 -9.057128363620002e-8 -9.627393498820000e-8 -1.023146161840000e-7
-1.087124978340000e-7 -1.154878058940000e-7 -1.226618786530000e-7 -1.302572267680000e-7
-1.382975964940000e-7 -1.468080362880000e-7 -1.558149669630000e-7 -1.653462555670000e-7
-1.754312932100000e-7 -1.861010770240000e-7 -1.973882964800000e-7 -2.093274243020000e-7
-2.219548122080000e-7 -2.353087917450000e-7 -2.494297804710000e-7 -2.643603937820000e-7
-2.801455626740001e-7 -2.968326577510000e-7 -3.144716198150000e-7 -3.331150973790000e-7
-3.528185914690001e-7 -3.736406081049999e-7 -3.956428188549999e-7 -4.188902298910001e-7
-4.434513600070001e-7 -4.693984280470000e-7 -4.968075502620001e-7 -5.257589480950000e-7
-5.563371669720000e-7 -5.886313066440001e-7 -6.227352637160001e-7 -6.587479869870001e-7
-6.967737462800000e-7 -7.369224154689999e-7 -7.793097704549999e-7 -8.240578028629999e-7
-8.712950503020000e-7 -9.211569440460000e-7 -9.737861750490001e-7 -1.029333079270000e-6
-1.087956043310000e-6 -1.149821931430000e-6 -1.215106535040000e-6 -1.283995045950000e-6
-1.356682554420000e-6 -1.433374573580000e-6 -1.514287591340000e-6 -1.599649651400000e-6
-1.689700964820000e-6 -1.784694553780000e-6 -1.884896929180000e-6 -1.990588803890001e-6
-2.102065843430000e-6 -2.219639456200000e-6 -2.343637625210000e-6 -2.474405783390000e-6
-2.612307735090000e-6 -2.757726625719999e-6 -2.911065962510000e-6 -3.072750688710001e-6
-3.243228314210000e-6 -3.422970105480000e-6 -3.612472337860000e-6 -3.812257613650000e-6
-4.022876249140000e-6 -4.244907734440000e-6 -4.478962269819999e-6 -4.725682382460000e-6
-4.985744627960001e-6 -5.259861380880000e-6 -5.548782719059999e-6 -5.853298406610000e-6
-6.174239980510000e-6 -6.512482946560000e-6 -6.868949090050000e-6 -7.244608907280002e-6
-7.640484164240001e-6 -8.057650588930001e-6 -8.497240704380003e-6 -8.960446809680001e-6
-9.448524116660000e-6 -9.962794050299999e-6 -1.050464772140000e-5 -1.107554958050000e-5
-1.167704126230000e-5 -1.231074563070000e-5 -1.297837103440000e-5 -1.368171578480000e-5
-1.442267286670000e-5 -1.520323489470000e-5 -1.602549932740000e-5 -1.689167395320000e-5
-1.780408266140000e-5 -1.876517151350000e-5 -1.977751513070000e-5 -2.084382341210000e-5
-2.196694860380000e-5 -2.314989273360000e-5 -2.439581543240000e-5 -2.570804216180000e-5
-2.709007286770000e-5 -2.854559108370000e-5 -3.007847350560001e-5 -3.169280006230000e-5
-3.339286450829999e-5 -3.518318556470001e-5 -3.706851863590000e-5 -3.905386813360000e-5
-4.114450043660000e-5 -4.334595752130000e-5 -4.566407129450001e-5 -4.810497866830000e-5
-5.067513740990000e-5 -5.338134281109999e-5 -5.623074521430000e-5 -5.923086844330000e-5
-6.238962918019999e-5 -6.571535734089999e-5 -6.921681749620001e-5 -7.290323139400002e-5
-7.678430163680000e-5 -8.087023657370002e-5 -8.517177646830000e-5 -8.970022100570002e-5
-9.446745820789999e-5 -9.948599482679999e-5 -1.047689882900000e-4 -1.103302802750000e-4
-1.161844320000000e-4 -1.223467613060000e-4 -1.288333816340000e-4 -1.356612429710000e-4
-1.428481748920000e-4 -1.504129317720000e-4 -1.583752402950000e-4 -1.667558493690000e-4
-1.755765825570000e-4 -1.848603931680000e-4 -1.946314221120000e-4 -2.049150586790000e-4
-2.157380043730000e-4 -2.271283399480000e-4 -2.391155958060000e-4 -2.517308259300000e-4
-2.650066854979999e-4 -2.789775123820000e-4 -2.936794127060000e-4 -3.091503506580000e-4
-3.254302427630000e-4 -3.425610568260000e-4 -3.605869157780001e-4 -3.795542066320000e-4
-3.995116948270000e-4 -4.205106441770000e-4 -4.426049427090001e-4 -4.658512346650000e-4
-4.903090589360001e-4 -5.160409942490000e-4 -5.431128113970001e-4 -5.715936328510001e-4
-6.015561000780000e-4 -6.330765489160001e-4 -6.662351933810000e-4 -7.011163182610001e-4
-7.378084809110000e-4 -7.764047226429999e-4 -8.170027901330000e-4 -8.597053672849999e-4
-9.046203180050000e-4 -9.518609403539999e-4 -1.001546232560000e-3 -1.053801171410000e-3
-1.108757003470000e-3 -1.166551549840000e-3 -1.227329524710000e-3 -1.291242868640000e-3
-1.358451096790000e-3 -1.429121663000000e-3 -1.503430340200000e-3 -1.581561617680000e-3
-1.663709116210000e-3 -1.750076021220000e-3 -1.840875535160000e-3 -1.936331349430000e-3
-2.036678136710000e-3 -2.142162064470000e-3 -2.253041330250000e-3 -2.369586719600000e-3
-2.492082187320000e-3 -2.620825462910000e-3 -2.756128680820000e-3 -2.898319036390000e-3
-3.047739468320000e-3 -3.204749368269999e-3 -3.369725318530000e-3 -3.543061858460000e-3
-3.725172280460000e-3 -3.916489456340000e-3 -4.117466694620000e-3 -4.328578629719999e-3
-4.550322143610000e-3 -4.783217320630000e-3 -5.027808436159999e-3 -5.284664979739999e-3
-5.554382713260000e-3 -5.837584764730000e-3 -6.134922758119999e-3 -6.447077979820000e-3
-6.774762581960001e-3 -7.118720823049999e-3 -7.479730346170000e-3 -7.858603494920001e-3
-8.256188667249999e-3 -8.673371707240001e-3 -9.111077334810000e-3 -9.570270613269999e-3
-1.005195845450000e-2 -1.055719116170000e-2 -1.108706400880000e-2 -1.164271885680000e-2
-1.222534580650000e-2 -1.283618488630000e-2 -1.347652777570000e-2 -1.414771956220000e-2
-1.485116053330000e-2 -1.558830800030000e-2 -1.636067815520000e-2 -1.716984795960000e-2
-1.801745706440000e-2 -1.890520976120000e-2 -1.983487696370000e-2 -2.080829822070000e-2
-2.182738376020000e-2 -2.289411656500000e-2 -2.401055448180000e-2 -2.517883236500000e-2
-2.640116425760000e-2 -2.767984561260000e-2 -2.901725555810000e-2 -3.041585921210000e-2
-3.187821005290000e-2 -3.340695235100000e-2 -3.500482367480000e-2 -3.667465747620000e-2
-3.841938577300000e-2 -4.024204193880000e-2 -4.214576361940000e-2 -4.413379579290000e-2
-4.620949399650000e-2 -4.837632774240000e-2 -5.063788415140000e-2 -5.299787183259999e-2
-5.546012504249999e-2 -5.802860815900001e-2 -6.070742050840000e-2 -6.350080158670001e-2
-6.641313671790000e-2 -6.944896319460002e-2 -7.261297694670001e-2 -7.591003978360000e-2
-7.934518725689999e-2 -8.292363718370000e-2 -8.665079887099999e-2 -9.053228307150000e-2
-9.457391269420000e-2 -9.878173427830001e-2 -1.031620302240000e-1 -1.077213317550000e-1
-1.124664325480000e-1 -1.174044029550000e-1 -1.225426046830000e-1 -1.278887057450000e-1
-1.334506954700000e-1 -1.392368992430000e-1 -1.452559926040000e-1 -1.515170142340000e-1
-1.580293772190000e-1 -1.648028779090000e-1 -1.718477015090000e-1 -1.791744233900000e-1
-1.867940049580000e-1 -1.947177826980000e-1 -2.029574488060000e-1 -2.115250216180000e-1
-2.204328037820000e-1 -2.296933258900000e-1 -2.393192730110000e-1 -2.493233913590000e-1
-2.597183720370000e-1 -2.705167086260000e-1 -2.817305251940000e-1 -2.933713711770000e-1
-3.054499795520000e-1 -3.179759847730000e-1 -3.309575971580000e-1 -3.444012307760000e-1
-3.583110824810000e-1 -3.726886605970000e-1 -3.875322629220000e-1 -4.028364052520000e-1
-4.185912036360000e-1 -4.347817159800000e-1 -4.513872516730000e-1 -4.683806614910000e-1
-4.857276242879999e-1 -5.033859518590001e-1 -5.213049388930000e-1 -5.394247910640000e-1
-5.576761708280000e-1 -5.759799074189999e-1 -5.942469243070000e-1 -6.123784438780000e-1
-6.302665345170000e-1 -6.477950690660000e-1 -6.648411647870000e-1 -6.812771723210000e-1
-6.969732733690000e-1 -7.118007321970000e-1 -7.256358227940000e-1 -7.383644195220000e-1
-7.498871922240000e-1 -7.601252850620000e-1 -7.690262800290000e-1 -7.765701503280001e-1
-7.827747956770001e-1 -7.877006235970000e-1 -7.914535028010000e-1 -7.941852762520000e-1
-7.960908971269999e-1 -7.974011626620000e-1 -7.983699999080000e-1 -7.992553455169999e-1
-8.002929128810001e-1 -8.016626205770001e-1 -8.034482425240000e-1 -8.055920132539999e-1
-8.078475525070001e-1 -8.097366002290000e-1 -8.105176381490001e-1 -8.091773337290000e-1
-8.044584347470000e-1 -7.949393905090000e-1 -7.791799948130000e-1 -7.559410328369999e-1
-7.244698272210000e-1 -6.848106209980001e-1 -6.380378036380000e-1 -5.862040026280000e-1
-5.316269403460000e-1 -4.755008474110000e-1 -4.184181051730000e-1 -3.610984183520000e-1
-3.044313056480000e-1 -2.494683574230000e-1 -1.973925353440000e-1 -1.494586923730000e-1
-1.069014938180000e-1 -7.081097987210000e-2 -4.198270073440000e-2 -2.075903633440000e-2
-6.890747930509999e-3 5.384668264700000e-4 3.070455438750000e-3 2.659583890890000e-3
1.259184435940000e-3 2.583467364490000e-4 3.702283711330000e-6 0.000000000000000e0
0.000000000000000e0 0.000000000000000e0 0.000000000000000e0 0.000000000000000e0
0.000000000000000e0 0.000000000000000e0 0.000000000000000e0 0.000000000000000e0
0.000000000000000e0 0.000000000000000e0 0.000000000000000e0 0.000000000000000e0
0.000000000000000e0 0.000000000000000e0 0.000000000000000e0 0.000000000000000e0
0.000000000000000e0 0.000000000000000e0 0.000000000000000e0 0.000000000000000e0
0.000000000000000e0 0.000000000000000e0 0.000000000000000e0 0.000000000000000e0
0.000000000000000e0 0.000000000000000e0 0.000000000000000e0 0.000000000000000e0
0.000000000000000e0 0.000000000000000e0 0.000000000000000e0 0.000000000000000e0
0.000000000000000e0 0.000000000000000e0 0.000000000000000e0 0.000000000000000e0
0.000000000000000e0 0.000000000000000e0 0.000000000000000e0 0.000000000000000e0
0.000000000000000e0 0.000000000000000e0 0.000000000000000e0 0.000000000000000e0
0.000000000000000e0 0.000000000000000e0 0.000000000000000e0 0.000000000000000e0
0.000000000000000e0 0.000000000000000e0 0.000000000000000e0 0.000000000000000e0
0.000000000000000e0 0.000000000000000e0 0.000000000000000e0 0.000000000000000e0
0.000000000000000e0 0.000000000000000e0 0.000000000000000e0 0.000000000000000e0
0.000000000000000e0 0.000000000000000e0 0.000000000000000e0 0.000000000000000e0
0.000000000000000e0 0.000000000000000e0 0.000000000000000e0 0.000000000000000e0
0.000000000000000e0 0.000000000000000e0 0.000000000000000e0 0.000000000000000e0
0.000000000000000e0 0.000000000000000e0 0.000000000000000e0 0.000000000000000e0
0.000000000000000e0 0.000000000000000e0 0.000000000000000e0 0.000000000000000e0
0.000000000000000e0 0.000000000000000e0 0.000000000000000e0 0.000000000000000e0
0.000000000000000e0 0.000000000000000e0 0.000000000000000e0 0.000000000000000e0
0.000000000000000e0 0.000000000000000e0 0.000000000000000e0 0.000000000000000e0
0.000000000000000e0 0.000000000000000e0 0.000000000000000e0 0.000000000000000e0
0.000000000000000e0 0.000000000000000e0 0.000000000000000e0 0.000000000000000e0
0.000000000000000e0 0.000000000000000e0 0.000000000000000e0 0.000000000000000e0
0.000000000000000e0 0.000000000000000e0 0.000000000000000e0 0.000000000000000e0
0.000000000000000e0 0.000000000000000e0 0.000000000000000e0 0.000000000000000e0
0.000000000000000e0 0.000000000000000e0 0.000000000000000e0 0.000000000000000e0
0.000000000000000e0 0.000000000000000e0 0.000000000000000e0 0.000000000000000e0
0.000000000000000e0 0.000000000000000e0 0.000000000000000e0 0.000000000000000e0
0.000000000000000e0 0.000000000000000e0 0.000000000000000e0 0.000000000000000e0
0.000000000000000e0 0.000000000000000e0 0.000000000000000e0 0.000000000000000e0
0.000000000000000e0 0.000000000000000e0 0.000000000000000e0 0.000000000000000e0
0.000000000000000e0 0.000000000000000e0 0.000000000000000e0 0.000000000000000e0
0.000000000000000e0 0.000000000000000e0 0.000000000000000e0 0.000000000000000e0
0.000000000000000e0 0.000000000000000e0 0.000000000000000e0 0.000000000000000e0
0.000000000000000e0 0.000000000000000e0 0.000000000000000e0 0.000000000000000e0
0.000000000000000e0 0.000000000000000e0 0.000000000000000e0 0.000000000000000e0
0.000000000000000e0 0.000000000000000e0 0.000000000000000e0 0.000000000000000e0
0.000000000000000e0 0.000000000000000e0 0.000000000000000e0 0.000000000000000e0
0.000000000000000e0 0.000000000000000e0 0.000000000000000e0 0.000000000000000e0
0.000000000000000e0 0.000000000000000e0 0.000000000000000e0 0.000000000000000e0
0.000000000000000e0 0.000000000000000e0 0.000000000000000e0 0.000000000000000e0
0.000000000000000e0 0.000000000000000e0 0.000000000000000e0 0.000000000000000e0
0.000000000000000e0 0.000000000000000e0 0.000000000000000e0 0.000000000000000e0
0.000000000000000e0 0.000000000000000e0 0.000000000000000e0 0.000000000000000e0
0.000000000000000e0 0.000000000000000e0 0.000000000000000e0 0.000000000000000e0
0.000000000000000e0 0.000000000000000e0 0.000000000000000e0 0.000000000000000e0
0.000000000000000e0 0.000000000000000e0 0.000000000000000e0 0.000000000000000e0
0.000000000000000e0 0.000000000000000e0 0.000000000000000e0 0.000000000000000e0
0.000000000000000e0 0.000000000000000e0 0.000000000000000e0 0.000000000000000e0
0.000000000000000e0 0.000000000000000e0 0.000000000000000e0 0.000000000000000e0
0.000000000000000e0 0.000000000000000e0 0.000000000000000e0 0.000000000000000e0
0.000000000000000e0 0.000000000000000e0 0.000000000000000e0 0.000000000000000e0
0.000000000000000e0 0.000000000000000e0 0.000000000000000e0 0.000000000000000e0
0.000000000000000e0 0.000000000000000e0 0.000000000000000e0 0.000000000000000e0
0.000000000000000e0 0.000000000000000e0 0.000000000000000e0 0.000000000000000e0
0.000000000000000e0 0.000000000000000e0 0.000000000000000e0 0.000000000000000e0
0.000000000000000e0 0.000000000000000e0 0.000000000000000e0 0.000000000000000e0
0.000000000000000e0 0.000000000000000e0 0.000000000000000e0 0.000000000000000e0
0.000000000000000e0 0.000000000000000e0 0.000000000000000e0 0.000000000000000e0
0.000000000000000e0 0.000000000000000e0 0.000000000000000e0 0.000000000000000e0
0.000000000000000e0
</PP_QIJ.1.4>
<PP_QIJ.2.2 first_index="2" second_index="2" composite_index="3">
0.000000000000000e0 -3.273011574479999e-10 -1.331679289540000e-9 -3.047860383740000e-9
-5.511962295329999e-9 -8.761546063269998e-9 -1.283566905230000e-8 -1.777493998490000e-8
-2.362157592979999e-8 -3.041946131520000e-8 -3.821420903690001e-8 -4.705322373609999e-8
-5.698576732150000e-8 -6.806302681419998e-8 -8.033818459750000e-8 -9.386649115449998e-8
-1.087053403810000e-7 -1.249143475650000e-7 -1.425554301210000e-7 -1.616928911830000e-7
-1.823935061480000e-7 -2.047266122810000e-7 -2.287642014770000e-7 -2.545810163070001e-7
-2.822546494420000e-7 -3.118656465920000e-7 -3.434976130690000e-7 -3.772373241060000e-7
-4.131748390649999e-7 -4.514036196620000e-7 -4.920206523580001e-7 -5.351265750520000e-7
-5.808258082380001e-7 -6.292266907610000e-7 -6.804416203600000e-7 -7.345871991400001e-7
-7.917843841560002e-7 -8.521586432820000e-7 -9.158401165630000e-7 -9.829637832140001e-7
-1.053669634490000e-6 -1.128102852600000e-6 -1.206413995950000e-6 -1.288759190780000e-6
-1.375300329600000e-6 -1.466205276580000e-6 -1.561648080060000e-6 -1.661809192550000e-6
-1.766875698460000e-6 -1.877041549740000e-6 -1.992507809780000e-6 -2.113482905860000e-6
-2.240182890429999e-6 -2.372831711500000e-6 -2.511661492460000e-6 -2.656912821760000e-6
-2.808835052650000e-6 -2.967686613350000e-6 -3.133735328150000e-6 -3.307258749620000e-6
-3.488544502520000e-6 -3.677890639589999e-6 -3.875606009860000e-6 -4.082010639740000e-6
-4.297436127410000e-6 -4.522226051000001e-6 -4.756736390970000e-6 -5.001335967160001e-6
-5.256406891199999e-6 -5.522345034530001e-6 -5.799560512850000e-6 -6.088478187340000e-6
-6.389538183400001e-6 -6.703196427430002e-6 -7.029925202300001e-6 -7.370213722100000e-6
-7.724568726989999e-6 -8.093515098619998e-6 -8.477596497080000e-6 -8.877376019910002e-6
-9.293436884069999e-6 -9.726383131610000e-6 -1.017684035990000e-5 -1.064545647710000e-5
-1.113290248410000e-5 -1.163987328350000e-5 -1.216708851680000e-5 -1.271529343040000e-5
-1.328525977200000e-5 -1.387778671780000e-5 -1.449370183250000e-5 -1.513386206180000e-5
-1.579915475990000e-5 -1.649049875260000e-5 -1.720884543710000e-5 -1.795517992020000e-5
-1.873052219570000e-5 -1.953592836310000e-5 -2.037249188780000e-5 -2.124134490589999e-5
-2.214365957380001e-5 -2.308064946420000e-5 -2.405357101140000e-5 -2.506372500600000e-5
-2.611245814160001e-5 -2.720116461500000e-5 -2.833128778230000e-5 -2.950432187160001e-5
-3.072181375570000e-5 -3.198536478610000e-5 -3.329663269010000e-5 -3.465733353390000e-5
-3.606924375390000e-5 -3.753420225789999e-5 -3.905411259910000e-5 -4.063094522589999e-5
-4.226673980840000e-5 -4.396360764700000e-5 -4.572373416290000e-5 -4.754938147530000e-5
-4.944289106830001e-5 -5.140668654920000e-5 -5.344327650260001e-5 -5.555525744300001e-5
-5.774531687000001e-5 -6.001623642860000e-5 -6.237089517879999e-5 -6.481227297870000e-5
-6.734345398360000e-5 -6.996763026740000e-5 -7.268810556750001e-5 -7.550829916050001e-5
-7.843174987110000e-5 -8.146212021940000e-5 -8.460320071180000e-5 -8.785891427990000e-5
-9.123332087250001e-5 -9.473062220670002e-5 -9.835516668219999e-5 -1.021114544660000e-4
-1.060041427520000e-4 -1.100380512030000e-4 -1.142181675780000e-4 -1.185496535580000e-4
-1.230378507690000e-4 -1.276882870120000e-4 -1.325066827120000e-4 -1.374989575900000e-4
-1.426712375540000e-4 -1.480298618430000e-4 -1.535813904070000e-4 -1.593326115450000e-4
-1.652905498030000e-4 -1.714624741500000e-4 -1.778559064290000e-4 -1.844786301030000e-4
-1.913386993030000e-4 -1.984444481810000e-4 -2.058045005950000e-4 -2.134277801170001e-4
-2.213235203940000e-4 -2.295012758590000e-4 -2.379709328130000e-4 -2.467427208900000e-4
-2.558272249110000e-4 -2.652353971530000e-4 -2.749785700290000e-4 -2.850684692150000e-4
-2.955172272210000e-4 -3.063373974290000e-4 -3.175419686129999e-4 -3.291443799600000e-4
-3.411585366040000e-4 -3.535988256920000e-4 -3.664801330010000e-4 -3.798178601320000e-4
-3.936279422780000e-4 -4.079268666190000e-4 -4.227316913340000e-4 -4.380600652690000e-4
-4.539302482760000e-4 -4.703611322520000e-4 -4.873722628950000e-4 -5.049838622040000e-4
-5.232168517470001e-4 -5.420928767280000e-4 -5.616343308740000e-4 -5.818643821689999e-4
-6.028069994690000e-4 -6.244869800280001e-4 -6.469299779560000e-4 -6.701625336510000e-4
-6.942121042360000e-4 -7.191070950239999e-4 -7.448768920650001e-4 -7.715518957910001e-4
-7.991635558079999e-4 -8.277444068750000e-4 -8.573281060930000e-4 -8.879494713710001e-4
-9.196445211820002e-4 -9.524505156800000e-4 -9.864059991980000e-4 -1.021550844190000e-3
-1.057926296670000e-3 -1.095575023160000e-3 -1.134541159240000e-3 -1.174870359750000e-3
-1.216609850670000e-3 -1.259808482730000e-3 -1.304516786850000e-3 -1.350787031450000e-3
-1.398673281670000e-3 -1.448231460570000e-3 -1.499519412380000e-3 -1.552596967930000e-3
-1.607526012170000e-3 -1.664370554020000e-3 -1.723196798510000e-3 -1.784073221380000e-3
-1.847070646110000e-3 -1.912262323490000e-3 -1.979724013940000e-3 -2.049534072440000e-3
-2.121773536360000e-3 -2.196526216110000e-3 -2.273878788890000e-3 -2.353920895420000e-3
-2.436745239920000e-3 -2.522447693370000e-3 -2.611127400110000e-3 -2.702886887980000e-3
-2.797832182050000e-3 -2.896072921980000e-3 -2.997722483320000e-3 -3.102898102650000e-3
-3.211721006800000e-3 -3.324316546260000e-3 -3.440814332860000e-3 -3.561348381880000e-3
-3.686057258710000e-3 -3.815084230220000e-3 -3.948577420900000e-3 -4.086689974010000e-3
-4.229580217820001e-3 -4.377411837020000e-3 -4.530354049640001e-3 -4.688581789410000e-3
-4.852275893860000e-3 -5.021623298250000e-3 -5.196817235459999e-3 -5.378057442140001e-3
-5.565550371040000e-3 -5.759509409970000e-3 -5.960155107260000e-3 -6.167715404149999e-3
-6.382425874090001e-3 -6.604529969219999e-3 -6.834279274120001e-3 -7.071933767120000e-3
-7.317762089180001e-3 -7.572041820690001e-3 -7.835059766120000e-3 -8.107112246989999e-3
-8.388505403060000e-3 -8.679555502010000e-3 -8.980589257829998e-3 -9.291944157930001e-3
-9.613968799269999e-3 -9.947023233520000e-3 -1.029147932160000e-2 -1.064772109730000e-2
-1.101614514070000e-2 -1.139716096140000e-2 -1.179119139030000e-2 -1.219867298310000e-2
-1.262005643170000e-2 -1.305580698700000e-2 -1.350640489100000e-2 -1.397234581900000e-2
-1.445414133210000e-2 -1.495231933920000e-2 -1.546742456940000e-2 -1.600001905430000e-2
-1.655068261970000e-2 -1.712001338720000e-2 -1.770862828550000e-2 -1.831716357030000e-2
-1.894627535400000e-2 -1.959664014360000e-2 -2.026895538680000e-2 -2.096394002640000e-2
-2.168233506230000e-2 -2.242490411930000e-2 -2.319243402270000e-2 -2.398573537790000e-2
-2.480564315610000e-2 -2.565301728300000e-2 -2.652874323060000e-2 -2.743373261120000e-2
-2.836892377100000e-2 -2.933528238420000e-2 -3.033380204400000e-2 -3.136550484970000e-2
-3.243144198900000e-2 -3.353269431140000e-2 -3.467037289280000e-2 -3.584561958790000e-2
-3.705960756760001e-2 -3.831354183920000e-2 -3.960865974570000e-2 -4.094623144250001e-2
-4.232756034489999e-2 -4.375398354670001e-2 -4.522687220100000e-2 -4.674763186310000e-2
-4.831770278720000e-2 -4.993856017380000e-2 -5.161171436030000e-2 -5.333871095100000e-2
-5.512113087660000e-2 -5.696059037960000e-2 -5.885874091500000e-2 -6.081726895970000e-2
-6.283789572130000e-2 -6.492237673619999e-2 -6.707250134860000e-2 -6.929009205630000e-2
-7.157700371540000e-2 -7.393512258870000e-2 -7.636636522480000e-2 -7.887267715550000e-2
-8.145603139360000e-2 -8.411842671730000e-2 -8.686188572250000e-2 -8.968845262550001e-2
-9.260019079619999e-2 -9.559918000160000e-2 -9.868751333730000e-2 -1.018672938240000e-1
-1.051406306470000e-1 -1.085096350060000e-1 -1.119764155570000e-1 -1.155430734120000e-1
-1.192116966700000e-1 -1.229843544400000e-1 -1.268630903360000e-1 -1.308499154000000e-1
-1.349468004170000e-1 -1.391556675910000e-1 -1.434783815400000e-1 -1.479167395690000e-1
-1.524724611810000e-1 -1.571471767870000e-1 -1.619424155650000e-1 -1.668595924310000e-1
-1.718999940790000e-1 -1.770647640340000e-1 -1.823548866930000e-1 -1.877711702900000e-1
-1.933142287580000e-1 -1.989844624390000e-1 -2.047820376090000e-1 -2.107068647700000e-1
-2.167585756940000e-1 -2.229364991790000e-1 -2.292396354980000e-1 -2.356666295240000e-1
-2.422157425270000e-1 -2.488848226450000e-1 -2.556712740390000e-1 -2.625720247550000e-1
-2.695834933440000e-1 -2.767015542880000e-1 -2.839215023080000e-1 -2.912380156620000e-1
-2.986451185420000e-1 -3.061361427250000e-1 -3.137036886570000e-1 -3.213395861810000e-1
-3.290348551560000e-1 -3.367796662490000e-1 -3.445633022440000e-1 -3.523741202190000e-1
-3.601995150430000e-1 -3.680258846460000e-1 -3.758385976030000e-1 -3.836219636140000e-1
-3.913592075320000e-1 -3.990324476200000e-1 -4.066226788270000e-1 -4.141097618670000e-1
-4.214724189840000e-1 -4.286882373200000e-1 -4.357336808169999e-1 -4.425841116580000e-1
-4.492138222130000e-1 -4.555960785000000e-1 -4.617031761100000e-1 -4.675065095220000e-1
-4.729766556150000e-1 -4.780834721130000e-1 -4.827962114930000e-1 -4.870836507070000e-1
-4.909142367850000e-1 -4.942562481000000e-1 -4.970779706380000e-1 -4.993478882360000e-1
-5.010348851690000e-1 -5.021084589310000e-1 -5.025389403979999e-1 -5.022977178610000e-1
-5.013574607030000e-1 -4.996923377310000e-1 -4.972782244990000e-1 -4.940928932400000e-1
-4.901161785590000e-1 -4.853301116370000e-1 -4.797190157030000e-1 -4.732695557990000e-1
-4.659707367759999e-1 -4.578138449300000e-1 -4.487923310660000e-1 -4.389016361079999e-1
-4.281389649460000e-1 -4.165030201110000e-1 -4.039937143240000e-1 -3.906118900600000e-1
-3.763590850020000e-1 -3.612373945500000e-1 -3.452494961460000e-1 -3.283989143380000e-1
-3.106906195440000e-1 -2.921320657200000e-1 -2.727347806870000e-1 -2.525166248360000e-1
-2.315048256050000e-1 -2.097398716340000e-1 -1.872803060300000e-1 -1.642083855440000e-1
-1.406364639500000e-1 -1.167138052470000e-1 -9.263332832220000e-2 -6.863752508610000e-2
-4.502248078670000e-2 -2.213857194170000e-2 -3.860578636110001e-4 1.979651730350000e-2
3.795331536320000e-2 5.364353379319999e-2 6.648606641360000e-2 7.621533556609999e-2
8.274302151120001e-2 8.621318263940001e-2 8.702619706630001e-2 8.578754534460000e-2
8.310741671530000e-2 7.928928882199999e-2 7.446670618700001e-2 6.878477924440000e-2
6.240615964340001e-2 5.550984938680000e-2 4.828939912659999e-2 4.095022468300000e-2
3.370567302490000e-2 2.677135303330000e-2 2.035716457660000e-2 1.465642210250000e-2
9.831607872409998e-3 5.996686632570000e-3 3.196878586020000e-3 1.388596452830000e-3
4.256064412370000e-4 6.311880503339999e-5 9.847773719869998e-7 0.000000000000000e0
0.000000000000000e0 0.000000000000000e0 0.000000000000000e0 0.000000000000000e0
0.000000000000000e0 0.000000000000000e0 0.000000000000000e0 0.000000000000000e0
0.000000000000000e0 0.000000000000000e0 0.000000000000000e0 0.000000000000000e0
0.000000000000000e0 0.000000000000000e0 0.000000000000000e0 0.000000000000000e0
0.000000000000000e0 0.000000000000000e0 0.000000000000000e0 0.000000000000000e0
0.000000000000000e0 0.000000000000000e0 0.000000000000000e0 0.000000000000000e0
0.000000000000000e0 0.000000000000000e0 0.000000000000000e0 0.000000000000000e0
0.000000000000000e0 0.000000000000000e0 0.000000000000000e0 0.000000000000000e0
0.000000000000000e0 0.000000000000000e0 0.000000000000000e0 0.000000000000000e0
0.000000000000000e0 0.000000000000000e0 0.000000000000000e0 0.000000000000000e0
0.000000000000000e0 0.000000000000000e0 0.000000000000000e0 0.000000000000000e0
0.000000000000000e0 0.000000000000000e0 0.000000000000000e0 0.000000000000000e0
0.000000000000000e0 0.000000000000000e0 0.000000000000000e0 0.000000000000000e0
0.000000000000000e0 0.000000000000000e0 0.000000000000000e0 0.000000000000000e0
0.000000000000000e0 0.000000000000000e0 0.000000000000000e0 0.000000000000000e0
0.000000000000000e0 0.000000000000000e0 0.000000000000000e0 0.000000000000000e0
0.000000000000000e0 0.000000000000000e0 0.000000000000000e0 0.000000000000000e0
0.000000000000000e0 0.000000000000000e0 0.000000000000000e0 0.000000000000000e0
0.000000000000000e0 0.000000000000000e0 0.000000000000000e0 0.000000000000000e0
0.000000000000000e0 0.000000000000000e0 0.000000000000000e0 0.000000000000000e0
0.000000000000000e0 0.000000000000000e0 0.000000000000000e0 0.000000000000000e0
0.000000000000000e0 0.000000000000000e0 0.000000000000000e0 0.000000000000000e0
0.000000000000000e0 0.000000000000000e0 0.000000000000000e0 0.000000000000000e0
0.000000000000000e0 0.000000000000000e0 0.000000000000000e0 0.000000000000000e0
0.000000000000000e0 0.000000000000000e0 0.000000000000000e0 0.000000000000000e0
0.000000000000000e0 0.000000000000000e0 0.000000000000000e0 0.000000000000000e0
0.000000000000000e0 0.000000000000000e0 0.000000000000000e0 0.000000000000000e0
0.000000000000000e0 0.000000000000000e0 0.000000000000000e0 0.000000000000000e0
0.000000000000000e0 0.000000000000000e0 0.000000000000000e0 0.000000000000000e0
0.000000000000000e0 0.000000000000000e0 0.000000000000000e0 0.000000000000000e0
0.000000000000000e0 0.000000000000000e0 0.000000000000000e0 0.000000000000000e0
0.000000000000000e0 0.000000000000000e0 0.000000000000000e0 0.000000000000000e0
0.000000000000000e0 0.000000000000000e0 0.000000000000000e0 0.000000000000000e0
0.000000000000000e0 0.000000000000000e0 0.000000000000000e0 0.000000000000000e0
0.000000000000000e0 0.000000000000000e0 0.000000000000000e0 0.000000000000000e0
0.000000000000000e0 0.000000000000000e0 0.000000000000000e0 0.000000000000000e0
0.000000000000000e0 0.000000000000000e0 0.000000000000000e0 0.000000000000000e0
0.000000000000000e0 0.000000000000000e0 0.000000000000000e0 0.000000000000000e0
0.000000000000000e0 0.000000000000000e0 0.000000000000000e0 0.000000000000000e0
0.000000000000000e0 0.000000000000000e0 0.000000000000000e0 0.000000000000000e0
0.000000000000000e0 0.000000000000000e0 0.000000000000000e0 0.000000000000000e0
0.000000000000000e0 0.000000000000000e0 0.000000000000000e0 0.000000000000000e0
0.000000000000000e0 0.000000000000000e0 0.000000000000000e0 0.000000000000000e0
0.000000000000000e0 0.000000000000000e0 0.000000000000000e0 0.000000000000000e0
0.000000000000000e0 0.000000000000000e0 0.000000000000000e0 0.000000000000000e0
0.000000000000000e0 0.000000000000000e0 0.000000000000000e0 0.000000000000000e0
0.000000000000000e0 0.000000000000000e0 0.000000000000000e0 0.000000000000000e0
0.000000000000000e0 0.000000000000000e0 0.000000000000000e0 0.000000000000000e0
0.000000000000000e0 0.000000000000000e0 0.000000000000000e0 0.000000000000000e0
0.000000000000000e0 0.000000000000000e0 0.000000000000000e0 0.000000000000000e0
0.000000000000000e0 0.000000000000000e0 0.000000000000000e0 0.000000000000000e0
0.000000000000000e0 0.000000000000000e0 0.000000000000000e0 0.000000000000000e0
0.000000000000000e0 0.000000000000000e0 0.000000000000000e0 0.000000000000000e0
0.000000000000000e0 0.000000000000000e0 0.000000000000000e0 0.000000000000000e0
0.000000000000000e0 0.000000000000000e0 0.000000000000000e0 0.000000000000000e0
0.000000000000000e0 0.000000000000000e0 0.000000000000000e0 0.000000000000000e0
0.000000000000000e0 0.000000000000000e0 0.000000000000000e0 0.000000000000000e0
0.000000000000000e0 0.000000000000000e0 0.000000000000000e0 0.000000000000000e0
0.000000000000000e0 0.000000000000000e0 0.000000000000000e0 0.000000000000000e0
0.000000000000000e0 0.000000000000000e0 0.000000000000000e0 0.000000000000000e0
0.000000000000000e0 0.000000000000000e0 0.000000000000000e0 0.000000000000000e0
0.000000000000000e0 0.000000000000000e0 0.000000000000000e0 0.000000000000000e0
0.000000000000000e0 0.000000000000000e0 0.000000000000000e0 0.000000000000000e0
0.000000000000000e0
</PP_QIJ.2.2>
<PP_QIJ.2.3 first_index="2" second_index="3" composite_index="5">
0.000000000000000e0 -4.796751318270001e-15 -3.936636911700000e-14 -1.363071054460000e-13
-3.315013101630000e-13 -6.643501156350001e-13 -1.178022698340000e-12 -1.919720960810000e-12
-2.940960524230001e-12 -4.297868971539999e-12 -6.051502332940001e-12 -8.268180860649998e-12
-1.101984519790000e-11 -1.438443410770000e-11 -1.844628499250000e-11 -2.329655850160001e-11
-2.903368859750000e-11 -3.576385952489999e-11 -4.360151120819999e-11 -5.266987468469999e-11
-6.310153927090001e-11 -7.503905325110000e-11 -8.863555997590000e-11 -1.040554713620000e-10
-1.214751808940000e-10 -1.410838183390000e-10 -1.630840485130000e-10 -1.876929165640000e-10
-2.151427423650000e-10 -2.456820667480000e-10 -2.795766524920000e-10 -3.171105430720000e-10
-3.585871824159998e-10 -4.043305990289999e-10 -4.546866580569999e-10 -5.100243850640000e-10
-5.707373654710002e-10 -6.372452238439998e-10 -7.099951874360000e-10 -7.894637386279999e-10
-8.761583611579999e-10 -9.706193853069998e-10 -1.073421937460000e-9 -1.185177999810000e-9
-1.306538586170000e-9 -1.438196040380000e-9 -1.580886463870000e-9 -1.735392279560000e-9
-1.902544939490000e-9 -2.083227784050000e-9 -2.278379061060001e-9 -2.488995113440001e-9
-2.716133744620000e-9 -2.960917771380000e-9 -3.224538774300000e-9 -3.508261056629999e-9
-3.813425822740000e-9 -4.141455588199999e-9 -4.493858834019999e-9 -4.872234918260000e-9
-5.278279258890000e-9 -5.713788802690001e-9 -6.180667795600000e-9 -6.680933870750000e-9
-7.216724471430000e-9 -7.790303626970001e-9 -8.404069100700001e-9 -9.060559929869997e-9
-9.762464378750002e-9 -1.051262832720000e-8 -1.131406411800000e-8 -1.216995988760000e-8
-1.308368940670000e-8 -1.405882245730000e-8 -1.509913577570000e-8 -1.620862459100000e-8
-1.739151479270000e-8 -1.865227575880000e-8 -1.999563388139999e-8 -2.142658682720000e-8
-2.295041857130000e-8 -2.457271524580000e-8 -2.629938184809999e-8 -2.813665985300000e-8
-3.009114577830000e-8 -3.216981075390000e-8 -3.438002114840000e-8 -3.672956031020000e-8
-3.922665148080000e-8 -4.187998194520000e-8 -4.469872848260001e-8 -4.769258419000000e-8
-5.087178674810000e-8 -5.424714820899999e-8 -5.783008638630001e-8 -6.163265793120000e-8
-6.566759318630000e-8 -6.994833291019999e-8 -7.448906697349999e-8 -7.930477512909999e-8
-8.441126996939998e-8 -8.982524218400002e-8 -9.556430824240001e-8 -1.016470606280000e-7
-1.080931207600000e-7 -1.149231947460000e-7 -1.221591321170000e-7 -1.298239876950000e-7
-1.379420867680000e-7 -1.465390937500000e-7 -1.556420844930000e-7 -1.652796224680000e-7
-1.754818389980000e-7 -1.862805177760000e-7 -1.977091838800000e-7 -2.098031975290000e-7
-2.225998528340000e-7 -2.361384817990000e-7 -2.504605638590000e-7 -2.656098412410000e-7
-2.816324404530000e-7 -2.985770002390000e-7 -3.164948063210000e-7 -3.354399333020000e-7
-3.554693940990000e-7 -3.766432973090000e-7 -3.990250129170001e-7 -4.226813468030000e-7
-4.476827244869999e-7 -4.741033846260000e-7 -5.020215827529999e-7 -5.315198058119998e-7
-5.626849980530001e-7 -5.956087988829999e-7 -6.303877933099999e-7 -6.671237756280000e-7
-7.059240270570001e-7 -7.469016080579999e-7 -7.901756661039999e-7 -8.358717597129999e-7
-8.841221996070001e-7 -9.350664078790000e-7 -9.888512961400002e-7 -1.045631663620000e-6
-1.105570616280000e-6 -1.168840008050000e-6 -1.235620905330000e-6 -1.306104075990000e-6
-1.380490504160000e-6 -1.458991932160000e-6 -1.541831430980000e-6 -1.629244000810000e-6
-1.721477203240000e-6 -1.818791826690000e-6 -1.921462586950000e-6 -2.029778864570000e-6
-2.144045480990000e-6 -2.264583515650000e-6 -2.391731165890000e-6 -2.525844652300000e-6
-2.667299171470000e-6 -2.816489898920000e-6 -2.973833044760000e-6 -3.139766964790000e-6
-3.314753329900000e-6 -3.499278357060000e-6 -3.693854104770000e-6 -3.899019836610000e-6
-4.115343456390000e-6 -4.343423018499999e-6 -4.583888317610000e-6 -4.837402561679999e-6
-5.104664132769999e-6 -5.386408440069999e-6 -5.683409870190000e-6 -5.996483839510000e-6
-6.326488954239999e-6 -6.674329283399999e-6 -7.040956751090000e-6 -7.427373653790001e-6
-7.834635309590001e-6 -8.263852845980001e-6 -8.716196133550000e-6 -9.192896873080000e-6
-9.695251844200001e-6 -1.022462632380000e-5 -1.078245768300000e-5 -1.137025917250000e-5
-1.198962390550000e-5 -1.264222904800000e-5 -1.332984022930000e-5 -1.405431618150000e-5
-1.481761362180000e-5 -1.562179238900000e-5 -1.646902084870000e-5 -1.736158158000000e-5
-1.830187735810000e-5 -1.929243744970000e-5 -2.033592423560000e-5 -2.143514017920000e-5
-2.259303515620000e-5 -2.381271416790000e-5 -2.509744545440000e-5 -2.645066903020000e-5
-2.787600566420000e-5 -2.937726632580000e-5 -3.095846212240001e-5 -3.262381475280000e-5
-3.437776750400000e-5 -3.622499681790000e-5 -3.817042445909999e-5 -4.021923031340000e-5
-4.237686585000001e-5 -4.464906828110000e-5 -4.704187545540001e-5 -4.956164152290000e-5
-5.221505340990000e-5 -5.500914814660001e-5 -5.795133109100002e-5 -6.104939509410000e-5
-6.431154065530000e-5 -6.774639711890000e-5 -7.136304496350000e-5 -7.517103924140000e-5
-7.918043422609999e-5 -8.340180932980001e-5 -8.784629635390001e-5 -9.252560814320001e-5
-9.745206871219999e-5 -1.026386449200000e-4 -1.080989797690000e-4 -1.138474274180000e-4
-1.198990899850000e-4 -1.262698562340000e-4 -1.329764422510000e-4 -1.400364341900000e-4
-1.474683332120000e-4 -1.552916027120000e-4 -1.635267179620000e-4 -1.721952182770000e-4
-1.813197618420000e-4 -1.909241833290000e-4 -2.010335544360000e-4 -2.116742475080000e-4
-2.228740023720000e-4 -2.346619965700000e-4 -2.470689191340000e-4 -2.601270480960000e-4
-2.738703319070000e-4 -2.883344749540001e-4 -3.035570273930000e-4 -3.195774794820000e-4
-3.364373606580000e-4 -3.541803435730000e-4 -3.728523533400000e-4 -3.925016822260000e-4
-4.131791100759999e-4 -4.349380307170001e-4 -4.578345846530000e-4 -4.819277983320000e-4
-5.072797303120000e-4 -5.339556246380001e-4 -5.620240717840001e-4 -5.915571775040000e-4
-6.226307399720000e-4 -6.553244355850001e-4 -6.897220138420000e-4 -7.259115017110000e-4
-7.639854179159999e-4 -8.040409976109999e-4 -8.461804278909998e-4 -8.905110946470000e-4
-9.371458412660001e-4 -9.862032396979998e-4 -1.037807874450000e-3 -1.092090640070000e-3
-1.149189052670000e-3 -1.209247576220000e-3 -1.272417964030000e-3 -1.338859616310000e-3
-1.408739954260000e-3 -1.482234811630000e-3 -1.559528844120000e-3 -1.640815957760000e-3
-1.726299756700000e-3 -1.816194011330000e-3 -1.910723147510000e-3 -2.010122757770000e-3
-2.114640135190000e-3 -2.224534830920000e-3 -2.340079236220000e-3 -2.461559189770000e-3
-2.589274611340000e-3 -2.723540162530000e-3 -2.864685935670000e-3 -3.013058171660000e-3
-3.169020007799999e-3 -3.332952256430000e-3 -3.505254215380000e-3 -3.686344511080000e-3
-3.876661975320000e-3 -4.076666556400000e-3 -4.286840265720000e-3 -4.507688160450000e-3
-4.739739363129999e-3 -4.983548119060000e-3 -5.239694891930000e-3 -5.508787498489999e-3
-5.791462282790000e-3 -6.088385330230000e-3 -6.400253722110000e-3 -6.727796830510000e-3
-7.071777653970001e-3 -7.432994193560000e-3 -7.812280869360000e-3 -8.210509976759999e-3
-8.628593182030000e-3 -9.067483056190000e-3 -9.528174646059998e-3 -1.001170708110000e-2
-1.051916521390000e-2 -1.105168129300000e-2 -1.161043666420000e-2 -1.219666349890000e-2
-1.281164654440000e-2 -1.345672489330000e-2 -1.413329376750000e-2 -1.484280631010000e-2
-1.558677538120000e-2 -1.636677534970000e-2 -1.718444387390000e-2 -1.804148366270000e-2
-1.893966420830000e-2 -1.988082347870000e-2 -2.086686956110000e-2 -2.189978224080000e-2
-2.298161450280000e-2 -2.411449394170000e-2 -2.530062406120000e-2 -2.654228544560000e-2
-2.784183678350000e-2 -2.920171572100000e-2 -3.062443952050000e-2 -3.211260549940000e-2
-3.366889121990000e-2 -3.529605439940000e-2 -3.699693250870000e-2 -3.877444202100000e-2
-4.063157727440000e-2 -4.257140890570000e-2 -4.459708180960000e-2 -4.671181257800000e-2
-4.891888636420000e-2 -5.122165312010000e-2 -5.362352314559999e-2 -5.612796188740000e-2
-5.873848392080000e-2 -6.145864604280000e-2 -6.429203939910000e-2 -6.724228056810000e-2
-7.031300151160000e-2 -7.350783830630001e-2 -7.683041855740001e-2 -8.028434739520002e-2
-8.387319194829999e-2 -8.760046417980000e-2 -9.146960197200000e-2 -9.548394833280000e-2
-9.964672859749999e-2 -1.039610254880000e-1 -1.084297518890000e-1 -1.130556211940000e-1
-1.178411150660000e-1 -1.227884484500000e-1 -1.278995316740000e-1 -1.331759294680000e-1
-1.386188167050000e-1 -1.442289307040000e-1 -1.500065198710000e-1 -1.559512885090000e-1
-1.620623375710000e-1 -1.683381011510000e-1 -1.747762785060000e-1 -1.813737613690000e-1
-1.881265563590000e-1 -1.950297022250000e-1 -2.020771817360000e-1 -2.092618279580000e-1
-2.165752247260000e-1 -2.240076010780000e-1 -2.315477194740000e-1 -2.391827576070000e-1
-2.468981836640000e-1 -2.546776249310000e-1 -2.625027296860000e-1 -2.703530223800000e-1
-2.782057522230000e-1 -2.860357353770000e-1 -2.938151911210000e-1 -3.015135725100000e-1
-3.090973923130000e-1 -3.165300452380000e-1 -3.237716278280000e-1 -3.307787578120000e-1
-3.375043951570000e-1 -3.438976677080000e-1 -3.499037049270000e-1 -3.554634841170000e-1
-3.605136944270000e-1 -3.649866250240000e-1 -3.688100850770000e-1 -3.719073645610000e-1
-3.741972464560000e-1 -3.755940825730000e-1 -3.760079470560000e-1 -3.753448834310000e-1
-3.735072629770000e-1 -3.703942739540000e-1 -3.659025627960000e-1 -3.599270495590000e-1
-3.523619405470000e-1 -3.431019607300000e-1 -3.320438271460000e-1 -3.190879813970000e-1
-3.041405941990000e-1 -2.871158472270000e-1 -2.679384864640000e-1 -2.465466265220000e-1
-2.228947660570000e-1 -1.969569501690000e-1 -1.687299859920000e-1 -1.382365826100000e-1
-1.055282462550000e-1 -7.068771791380001e-2 -3.383069483090000e-2 4.893465847790001e-3
4.530239858870000e-2 8.718309277350000e-2 1.302963163160000e-1 1.743833974990000e-1
2.191755506510000e-1 2.644057342200000e-1 3.098227217940000e-1 3.552066200610000e-1
4.003844596300000e-1 4.452437033370000e-1 4.897405782650000e-1 5.338991088390000e-1
5.777957651480000e-1 6.215240489390000e-1 6.651336670259999e-1 7.085411154040000e-1
7.514140344869999e-1 7.930430087140000e-1 8.322353339860001e-1 8.673014303920001e-1
8.962611839810000e-1 9.173005947340000e-1 9.286588243070000e-1 9.284955910679999e-1
9.149975806620001e-1 8.865498236540001e-1 8.419631732279999e-1 7.807531138950000e-1
7.034526363569999e-1 6.119238931060000e-1 5.096096398330000e-1 4.016374677420000e-1
2.946621296980000e-1 1.963141285710000e-1 1.141363838700000e-1 5.397193474849999e-2
1.797796567400000e-2 2.891617615860000e-3 3.525428381320000e-5 0.000000000000000e0
0.000000000000000e0 0.000000000000000e0 0.000000000000000e0 0.000000000000000e0
0.000000000000000e0 0.000000000000000e0 0.000000000000000e0 0.000000000000000e0
0.000000000000000e0 0.000000000000000e0 0.000000000000000e0 0.000000000000000e0
0.000000000000000e0 0.000000000000000e0 0.000000000000000e0 0.000000000000000e0
0.000000000000000e0 0.000000000000000e0 0.000000000000000e0 0.000000000000000e0
0.000000000000000e0 0.000000000000000e0 0.000000000000000e0 0.000000000000000e0
0.000000000000000e0 0.000000000000000e0 0.000000000000000e0 0.000000000000000e0
0.000000000000000e0 0.000000000000000e0 0.000000000000000e0 0.000000000000000e0
0.000000000000000e0 0.000000000000000e0 0.000000000000000e0 0.000000000000000e0
0.000000000000000e0 0.000000000000000e0 0.000000000000000e0 0.000000000000000e0
0.000000000000000e0 0.000000000000000e0 0.000000000000000e0 0.000000000000000e0
0.000000000000000e0 0.000000000000000e0 0.000000000000000e0 0.000000000000000e0
0.000000000000000e0 0.000000000000000e0 0.000000000000000e0 0.000000000000000e0
0.000000000000000e0 0.000000000000000e0 0.000000000000000e0 0.000000000000000e0
0.000000000000000e0 0.000000000000000e0 0.000000000000000e0 0.000000000000000e0
0.000000000000000e0 0.000000000000000e0 0.000000000000000e0 0.000000000000000e0
0.000000000000000e0 0.000000000000000e0 0.000000000000000e0 0.000000000000000e0
0.000000000000000e0 0.000000000000000e0 0.000000000000000e0 0.000000000000000e0
0.000000000000000e0 0.000000000000000e0 0.000000000000000e0 0.000000000000000e0
0.000000000000000e0 0.000000000000000e0 0.000000000000000e0 0.000000000000000e0
0.000000000000000e0 0.000000000000000e0 0.000000000000000e0 0.000000000000000e0
0.000000000000000e0 0.000000000000000e0 0.000000000000000e0 0.000000000000000e0
0.000000000000000e0 0.000000000000000e0 0.000000000000000e0 0.000000000000000e0
0.000000000000000e0 0.000000000000000e0 0.000000000000000e0 0.000000000000000e0
0.000000000000000e0 0.000000000000000e0 0.000000000000000e0 0.000000000000000e0
0.000000000000000e0 0.000000000000000e0 0.000000000000000e0 0.000000000000000e0
0.000000000000000e0 0.000000000000000e0 0.000000000000000e0 0.000000000000000e0
0.000000000000000e0 0.000000000000000e0 0.000000000000000e0 0.000000000000000e0
0.000000000000000e0 0.000000000000000e0 0.000000000000000e0 0.000000000000000e0
0.000000000000000e0 0.000000000000000e0 0.000000000000000e0 0.000000000000000e0
0.000000000000000e0 0.000000000000000e0 0.000000000000000e0 0.000000000000000e0
0.000000000000000e0 0.000000000000000e0 0.000000000000000e0 0.000000000000000e0
0.000000000000000e0 0.000000000000000e0 0.000000000000000e0 0.000000000000000e0
0.000000000000000e0 0.000000000000000e0 0.000000000000000e0 0.000000000000000e0
0.000000000000000e0 0.000000000000000e0 0.000000000000000e0 0.000000000000000e0
0.000000000000000e0 0.000000000000000e0 0.000000000000000e0 0.000000000000000e0
0.000000000000000e0 0.000000000000000e0 0.000000000000000e0 0.000000000000000e0
0.000000000000000e0 0.000000000000000e0 0.000000000000000e0 0.000000000000000e0
0.000000000000000e0 0.000000000000000e0 0.000000000000000e0 0.000000000000000e0
0.000000000000000e0 0.000000000000000e0 0.000000000000000e0 0.000000000000000e0
0.000000000000000e0 0.000000000000000e0 0.000000000000000e0 0.000000000000000e0
0.000000000000000e0 0.000000000000000e0 0.000000000000000e0 0.000000000000000e0
0.000000000000000e0 0.000000000000000e0 0.000000000000000e0 0.000000000000000e0
0.000000000000000e0 0.000000000000000e0 0.000000000000000e0 0.000000000000000e0
0.000000000000000e0 0.000000000000000e0 0.000000000000000e0 0.000000000000000e0
0.000000000000000e0 0.000000000000000e0 0.000000000000000e0 0.000000000000000e0
0.000000000000000e0 0.000000000000000e0 0.000000000000000e0 0.000000000000000e0
0.000000000000000e0 0.000000000000000e0 0.000000000000000e0 0.000000000000000e0
0.000000000000000e0 0.000000000000000e0 0.000000000000000e0 0.000000000000000e0
0.000000000000000e0 0.000000000000000e0 0.000000000000000e0 0.000000000000000e0
0.000000000000000e0 0.000000000000000e0 0.000000000000000e0 0.000000000000000e0
0.000000000000000e0 0.000000000000000e0 0.000000000000000e0 0.000000000000000e0
0.000000000000000e0 0.000000000000000e0 0.000000000000000e0 0.000000000000000e0
0.000000000000000e0 0.000000000000000e0 0.000000000000000e0 0.000000000000000e0
0.000000000000000e0 0.000000000000000e0 0.000000000000000e0 0.000000000000000e0
0.000000000000000e0 0.000000000000000e0 0.000000000000000e0 0.000000000000000e0
0.000000000000000e0 0.000000000000000e0 0.000000000000000e0 0.000000000000000e0
0.000000000000000e0 0.000000000000000e0 0.000000000000000e0 0.000000000000000e0
0.000000000000000e0 0.000000000000000e0 0.000000000000000e0 0.000000000000000e0
0.000000000000000e0 0.000000000000000e0 0.000000000000000e0 0.000000000000000e0
0.000000000000000e0 0.000000000000000e0 0.000000000000000e0 0.000000000000000e0
0.000000000000000e0 0.000000000000000e0 0.000000000000000e0 0.000000000000000e0
0.000000000000000e0 0.000000000000000e0 0.000000000000000e0 0.000000000000000e0
0.000000000000000e0
</PP_QIJ.2.3>
<PP_QIJ.2.4 first_index="2" second_index="4" composite_index="8">
0.000000000000000e0 5.274629133790000e-15 4.328825567029999e-14 1.498867425010000e-13
3.645272296120000e-13 7.305361993519998e-13 1.295383570830000e-12 2.110973750910000e-12
3.233954620850000e-12 4.726045492030000e-12 6.654385121450000e-12 9.091900938280000e-12
1.211770069630000e-11 1.581748783450001e-11 2.028400189800000e-11 2.561748544800001e-11
3.192617896610001e-11 3.932684534140001e-11 4.794532561909999e-11 5.791712777610001e-11
6.938805039210000e-11 8.251484318239999e-11 9.746590646809999e-11 1.144220317740000e-10
1.335771858640000e-10 1.551393406440000e-10 1.793313515090000e-10 2.063918868360000e-10
2.365764114810000e-10 2.701582272890000e-10 3.074295737970000e-10 3.487027924710000e-10
3.943115580170000e-10 4.446121804730000e-10 4.999849820180000e-10 5.608357526270000e-10
6.275972889339998e-10 7.007310208950002e-10 7.807287311040000e-10 8.681143718610002e-10
9.634459853710000e-10 1.067317732760000e-9 1.180362037880000e-9 1.303251852170000e-9
1.436703047330000e-9 1.581476942600000e-9 1.738382974260000e-9 1.908281514930000e-9
2.092086850970000e-9 2.290770326570000e-9 2.505363663600000e-9 2.736962466870000e-9
2.986729924840000e-9 3.255900716430000e-9 3.545785135110000e-9 3.857773442180000e-9
4.193340461550000e-9 4.554050429169998e-9 4.941562110990000e-9 5.357634203860000e-9
5.804131034840000e-9 6.283028574929999e-9 6.796420784310002e-9 7.346526306940000e-9
7.935695533459999e-9 8.566418052200000e-9 9.241330509219999e-9 9.963224899490003e-9
1.073505731240000e-8 1.155995715620000e-8 1.244123688640000e-8 1.338240226690000e-8
1.438716319020000e-8 1.545944508910000e-8 1.660340096920000e-8 1.782342409820000e-8
1.912416138450000e-8 2.051052748430000e-8 2.198771967460000e-8 2.356123353470000e-8
2.523687947739999e-8 2.702080017750000e-8 2.891948894440000e-8 3.093980908909999e-8
3.308901433950000e-8 3.537477035999999e-8 3.780517743260000e-8 4.038879436460001e-8
4.313466368530000e-8 4.605233820210000e-8 4.915190898830001e-8 5.244403487789999e-8
5.593997354980001e-8 5.965161428250001e-8 6.359151247240002e-8 6.777292600619999e-8
7.220985358709999e-8 7.691707511980001e-8 8.191019426169998e-8 8.720568325680000e-8
9.282093017270000e-8 9.877428866960001e-8 1.050851304330000e-7 1.117739004160000e-7
1.188621750340000e-7 1.263727234720000e-7 1.343295722750000e-7 1.427580733800000e-7
1.516849757920000e-7 1.611385010740000e-7 1.711484228810000e-7 1.817461507210000e-7
1.929648181950000e-7 2.048393759300000e-7 2.174066894710000e-7 2.307056423820000e-7
2.447772448370000e-7 2.596647479900000e-7 2.754137644290000e-7 2.920723950380000e-7
3.096913625980000e-7 3.283241524920000e-7 3.480271608810001e-7 3.688598507559999e-7
3.908849162649999e-7 4.141684557629999e-7 4.387801540530000e-7 4.647934742770001e-7
4.922858599879999e-7 5.213389479389999e-7 5.520387921330001e-7 5.844760997500000e-7
6.187464795710000e-7 6.549507035400001e-7 6.931949821850001e-7 7.335912545999999e-7
7.762574937670001e-7 8.213180280320000e-7 8.689038795650001e-7 9.191531207119999e-7
9.722112491810000e-7 1.028231583040000e-6 1.087375676580000e-6 1.149813758120000e-6
1.215725190960000e-6 1.285298958590000e-6 1.358734175570000e-6 1.436240625330000e-6
1.518039326300000e-6 1.604363127900000e-6 1.695457337990000e-6 1.791580383330000e-6
1.893004504830000e-6 2.000016489470000e-6 2.112918440700000e-6 2.232028589460000e-6
2.357682147820000e-6 2.490232207600000e-6 2.630050686240000e-6 2.777529322450000e-6
2.933080724140000e-6 3.097139471540000e-6 3.270163278280000e-6 3.452634213430001e-6
3.645059987839999e-6 3.847975307989999e-6 4.061943300970000e-6 4.287557014250000e-6
4.525440994250001e-6 4.776252947700000e-6 5.040685490200001e-6 5.319467986549999e-6
5.613368487530001e-6 5.923195768380001e-6 6.249801473969998e-6 6.594082376639999e-6
6.956982752160000e-6 7.339496880330001e-6 7.742671676510000e-6 8.167609460980000e-6
8.615470873310000e-6 9.087477939310000e-6 9.584917298489998e-6 1.010914360040000e-5
1.066158307870000e-5 1.124373731200000e-5 1.185718718180000e-5 1.250359703640000e-5
1.318471907380000e-5 1.390239795260000e-5 1.465857564370000e-5 1.545529653640000e-5
1.629471281010000e-5 1.717909008690000e-5 1.811081337910000e-5 1.909239334700000e-5
2.012647288319999e-5 2.121583404000000e-5 2.236340531810001e-5 2.357226933580000e-5
2.484567089600001e-5 2.618702547590000e-5 2.759992815630000e-5 2.908816301770000e-5
3.065571302390000e-5 3.230677042090000e-5 3.404574767580000e-5 3.587728898500000e-5
3.780628237990000e-5 3.983787246219999e-5 4.197747380000000e-5 4.423078501970000e-5
4.660380362900001e-5 4.910284160940000e-5 5.173454181630000e-5 5.450589523020001e-5
5.742425910070001e-5 6.049737603150001e-5 6.373339405169999e-5 6.714088772760000e-5
7.072888036440000e-5 7.450686735720000e-5 7.848484074780002e-5 8.267331504950000e-5
8.708335440580001e-5 9.172660114859998e-5 9.661530583070000e-5 1.017623588040000e-4
1.071813234260000e-4 1.128864709730000e-4 1.188928173510000e-4 1.252161616910000e-4
1.318731269330000e-4 1.388812024850000e-4 1.462587890740000e-4 1.540252458970000e-4
1.622009401890000e-4 1.708072993180000e-4 1.798668655550000e-4 1.894033536380000e-4
1.994417112720000e-4 2.100081827190000e-4 2.211303756240000e-4 2.328373312440000e-4
2.451595982540000e-4 2.581293102910000e-4 2.717802674440000e-4 2.861480218670000e-4
3.012699677350000e-4 3.171854357360000e-4 3.339357923530000e-4 3.515645441380000e-4
3.701174472490000e-4 3.896426224960000e-4 4.101906761620000e-4 4.318148268910000e-4
4.545710389270000e-4 4.785181620180000e-4 5.037180783039999e-4 5.302358565230001e-4
5.581399138960000e-4 5.875021860420000e-4 6.183983053210000e-4 6.509077879970000e-4
6.851142306410001e-4 7.211055162019999e-4 7.589740302190000e-4 7.988168876200000e-4
8.407361706240000e-4 8.848391782490001e-4 9.312386879629999e-4 9.800532300310000e-4
1.031407375140000e-3 1.085432035920000e-3 1.142264782920000e-3 1.202050175800000e-3
1.264940110340000e-3 1.331094181890000e-3 1.400680066200000e-3 1.473873918190000e-3
1.550860789430000e-3 1.631835065360000e-3 1.717000922750000e-3 1.806572808560000e-3
1.900775940870000e-3 1.999846832930000e-3 2.104033841140000e-3 2.213597738110000e-3
2.328812311530000e-3 2.449964990150000e-3 2.577357497670000e-3 2.711306535720000e-3
2.852144497080000e-3 3.000220210050000e-3 3.155899715250000e-3 3.319567075999999e-3
3.491625223260000e-3 3.672496836550000e-3 3.862625261770000e-3 4.062475467280000e-3
4.272535039280000e-3 4.493315217810000e-3 4.725351974310000e-3 4.969207132119999e-3
5.225469530800000e-3 5.494756235540001e-3 5.777713792600000e-3 6.075019531679999e-3
6.387382916400000e-3 6.715546943410001e-3 7.060289591149999e-3 7.422425318729999e-3
7.802806615629999e-3 8.202325602439998e-3 8.621915683040001e-3 9.062553248119999e-3
9.525259430140000e-3 1.001110190910000e-2 1.052119676850000e-2 1.105671040120000e-2
1.161886146280000e-2 1.220892287230000e-2 1.282822385680000e-2 1.347815203910000e-2
1.416015556430000e-2 1.487574526250000e-2 1.562649684360000e-2 1.641405311990000e-2
1.724012625030000e-2 1.810650000090000e-2 1.901503201510000e-2 1.996765608500000e-2
2.096638441540000e-2 2.201330987090000e-2 2.311060819530000e-2 2.426054019020000e-2
2.546545383990000e-2 2.672778636800000e-2 2.805006620790000e-2 2.943491486970000e-2
3.088504868370000e-2 3.240328039720000e-2 3.399252060180000e-2 3.565577896370000e-2
3.739616522870000e-2 3.921688997030000e-2 4.112126504700000e-2 4.311270373100000e-2
4.519472046910000e-2 4.737093023170000e-2 4.964504740270001e-2 5.202088416060000e-2
5.450234829510000e-2 5.709344040150000e-2 5.979825038880000e-2 6.262095323500000e-2
6.556580391710000e-2 6.863713143740000e-2 7.183933186470000e-2 7.517686030210000e-2
7.865422168730001e-2 8.227596032639999e-2 8.604664805490001e-2 8.997087091419999e-2
9.405321422610001e-2 9.829824593740000e-2 1.027104981070000e-1 1.072944463890000e-1
1.120544873810000e-1 1.169949136570000e-1 1.221198863590000e-1 1.274334051480000e-1
1.329392753590000e-1 1.386410721680000e-1 1.445421015840000e-1 1.506453580680000e-1
1.569534785740000e-1 1.634686928060000e-1 1.701927694690000e-1 1.771269582890000e-1
1.842719275940000e-1 1.916276971900000e-1 1.991935663340000e-1 2.069680365480000e-1
2.149487290390000e-1 2.231322965010000e-1 2.315143290610000e-1 2.400892541600000e-1
2.488502301490000e-1 2.577890334180000e-1 2.668959388890000e-1 2.761595937400000e-1
2.855668842540000e-1 2.951027957590000e-1 3.047502656710000e-1 3.144900297480000e-1
3.243004617400000e-1 3.341574067820000e-1 3.440340089770000e-1 3.539005338610000e-1
3.637241866070000e-1 3.734689271380000e-1 3.830952836250000e-1 3.925601662250000e-1
4.018166833830000e-1 4.108139635550000e-1 4.194969858190000e-1 4.278064235870000e-1
4.356785064520000e-1 4.430449061550000e-1 4.498326537190000e-1 4.559640960050000e-1
4.613569012310000e-1 4.659241244190000e-1 4.695743452300000e-1 4.722118921710000e-1
4.737371687020000e-1 4.740470982020000e-1 4.730357060130000e-1 4.705948576820000e-1
4.666151729820000e-1 4.609871349250000e-1 4.536024117310000e-1 4.443554070280000e-1
4.331450492600000e-1 4.198768247560000e-1 4.044650498060000e-1 3.868353648750000e-1
3.669274181710000e-1 3.446976859600000e-1 3.201223527100000e-1 2.932001456080000e-1
2.639549853580000e-1 2.324382795830000e-1 1.987306483410000e-1 1.629428363550000e-1
1.252155381030000e-1 8.571784661780001e-2 4.464404388960000e-2 2.208492142660000e-3
-4.136152340780000e-2 -8.583499006290001e-2 -1.309881420770000e-1 -1.766165938790000e-1
-2.225475212760000e-1 -2.686501494830000e-1 -3.148420498740000e-1 -3.610879169470000e-1
-4.073867175100000e-1 -4.537426200090000e-1 -5.001153602970000e-1 -5.463474206190000e-1
-5.920698026059999e-1 -6.365971862760000e-1 -6.788398866110001e-1 -7.172888453690000e-1
-7.501746592480000e-1 -7.758299556020000e-1 -7.926027787060001e-1 -7.987644687340000e-1
-7.926077993110000e-1 -7.726033537750000e-1 -7.376072330850000e-1 -6.871158812030000e-1
-6.215524669100000e-1 -5.425528931440001e-1 -4.531979274750000e-1 -3.581124485720000e-1
-2.633274832940000e-1 -1.757849155430000e-1 -1.023767317280000e-1 -4.848379343560000e-2
-1.617107591580000e-2 -2.603980639070000e-3 -3.168527978560001e-5 0.000000000000000e0
0.000000000000000e0 0.000000000000000e0 0.000000000000000e0 0.000000000000000e0
0.000000000000000e0 0.000000000000000e0 0.000000000000000e0 0.000000000000000e0
0.000000000000000e0 0.000000000000000e0 0.000000000000000e0 0.000000000000000e0
0.000000000000000e0 0.000000000000000e0 0.000000000000000e0 0.000000000000000e0
0.000000000000000e0 0.000000000000000e0 0.000000000000000e0 0.000000000000000e0
0.000000000000000e0 0.000000000000000e0 0.000000000000000e0 0.000000000000000e0
0.000000000000000e0 0.000000000000000e0 0.000000000000000e0 0.000000000000000e0
0.000000000000000e0 0.000000000000000e0 0.000000000000000e0 0.000000000000000e0
0.000000000000000e0 0.000000000000000e0 0.000000000000000e0 0.000000000000000e0
0.000000000000000e0 0.000000000000000e0 0.000000000000000e0 0.000000000000000e0
0.000000000000000e0 0.000000000000000e0 0.000000000000000e0 0.000000000000000e0
0.000000000000000e0 0.000000000000000e0 0.000000000000000e0 0.000000000000000e0
0.000000000000000e0 0.000000000000000e0 0.000000000000000e0 0.000000000000000e0
0.000000000000000e0 0.000000000000000e0 0.000000000000000e0 0.000000000000000e0
0.000000000000000e0 0.000000000000000e0 0.000000000000000e0 0.000000000000000e0
0.000000000000000e0 0.000000000000000e0 0.000000000000000e0 0.000000000000000e0
0.000000000000000e0 0.000000000000000e0 0.000000000000000e0 0.000000000000000e0
0.000000000000000e0 0.000000000000000e0 0.000000000000000e0 0.000000000000000e0
0.000000000000000e0 0.000000000000000e0 0.000000000000000e0 0.000000000000000e0
0.000000000000000e0 0.000000000000000e0 0.000000000000000e0 0.000000000000000e0
0.000000000000000e0 0.000000000000000e0 0.000000000000000e0 0.000000000000000e0
0.000000000000000e0 0.000000000000000e0 0.000000000000000e0 0.000000000000000e0
0.000000000000000e0 0.000000000000000e0 0.000000000000000e0 0.000000000000000e0
0.000000000000000e0 0.000000000000000e0 0.000000000000000e0 0.000000000000000e0
0.000000000000000e0 0.000000000000000e0 0.000000000000000e0 0.000000000000000e0
0.000000000000000e0 0.000000000000000e0 0.000000000000000e0 0.000000000000000e0
0.000000000000000e0 0.000000000000000e0 0.000000000000000e0 0.000000000000000e0
0.000000000000000e0 0.000000000000000e0 0.000000000000000e0 0.000000000000000e0
0.000000000000000e0 0.000000000000000e0 0.000000000000000e0 0.000000000000000e0
0.000000000000000e0 0.000000000000000e0 0.000000000000000e0 0.000000000000000e0
0.000000000000000e0 0.000000000000000e0 0.000000000000000e0 0.000000000000000e0
0.000000000000000e0 0.000000000000000e0 0.000000000000000e0 0.000000000000000e0
0.000000000000000e0 0.000000000000000e0 0.000000000000000e0 0.000000000000000e0
0.000000000000000e0 0.000000000000000e0 0.000000000000000e0 0.000000000000000e0
0.000000000000000e0 0.000000000000000e0 0.000000000000000e0 0.000000000000000e0
0.000000000000000e0 0.000000000000000e0 0.000000000000000e0 0.000000000000000e0
0.000000000000000e0 0.000000000000000e0 0.000000000000000e0 0.000000000000000e0
0.000000000000000e0 0.000000000000000e0 0.000000000000000e0 0.000000000000000e0
0.000000000000000e0 0.000000000000000e0 0.000000000000000e0 0.000000000000000e0
0.000000000000000e0 0.000000000000000e0 0.000000000000000e0 0.000000000000000e0
0.000000000000000e0 0.000000000000000e0 0.000000000000000e0 0.000000000000000e0
0.000000000000000e0 0.000000000000000e0 0.000000000000000e0 0.000000000000000e0
0.000000000000000e0 0.000000000000000e0 0.000000000000000e0 0.000000000000000e0
0.000000000000000e0 0.000000000000000e0 0.000000000000000e0 0.000000000000000e0
0.000000000000000e0 0.000000000000000e0 0.000000000000000e0 0.000000000000000e0
0.000000000000000e0 0.000000000000000e0 0.000000000000000e0 0.000000000000000e0
0.000000000000000e0 0.000000000000000e0 0.000000000000000e0 0.000000000000000e0
0.000000000000000e0 0.000000000000000e0 0.000000000000000e0 0.000000000000000e0
0.000000000000000e0 0.000000000000000e0 0.000000000000000e0 0.000000000000000e0
0.000000000000000e0 0.000000000000000e0 0.000000000000000e0 0.000000000000000e0
0.000000000000000e0 0.000000000000000e0 0.000000000000000e0 0.000000000000000e0
0.000000000000000e0 0.000000000000000e0 0.000000000000000e0 0.000000000000000e0
0.000000000000000e0 0.000000000000000e0 0.000000000000000e0 0.000000000000000e0
0.000000000000000e0 0.000000000000000e0 0.000000000000000e0 0.000000000000000e0
0.000000000000000e0 0.000000000000000e0 0.000000000000000e0 0.000000000000000e0
0.000000000000000e0 0.000000000000000e0 0.000000000000000e0 0.000000000000000e0
0.000000000000000e0 0.000000000000000e0 0.000000000000000e0 0.000000000000000e0
0.000000000000000e0 0.000000000000000e0 0.000000000000000e0 0.000000000000000e0
0.000000000000000e0 0.000000000000000e0 0.000000000000000e0 0.000000000000000e0
0.000000000000000e0 0.000000000000000e0 0.000000000000000e0 0.000000000000000e0
0.000000000000000e0 0.000000000000000e0 0.000000000000000e0 0.000000000000000e0
0.000000000000000e0 0.000000000000000e0 0.000000000000000e0 0.000000000000000e0
0.000000000000000e0 0.000000000000000e0 0.000000000000000e0 0.000000000000000e0
0.000000000000000e0
</PP_QIJ.2.4>
<PP_QIJ.3.3 first_index="3" second_index="3" composite_index="6">
0.000000000000000e0 1.902844383419999e-9 7.742039401640000e-9 1.771947298090000e-8
3.204512501150000e-8 5.093736568620001e-8 7.462326445430000e-8 1.033389099660000e-7
1.373297413870000e-7 1.768508914890000e-7 2.221675419200000e-7 2.735552910800000e-7
3.313005350570000e-7 3.957008620590000e-7 4.670654608280000e-7 5.457155435239999e-7
6.319847835730002e-7 7.262197690200000e-7 8.287804719060000e-7 9.400407342550000e-7
1.060388771220000e-6 1.190227692020000e-6 1.329976039250000e-6 1.480068347260000e-6
1.640955720190000e-6 1.813106430440000e-6 1.997006538190000e-6 2.193160532780000e-6
2.402091996690000e-6 2.624344292910000e-6 2.860481276400000e-6 3.111088030800000e-6
3.376771630800000e-6 3.658161931520000e-6 3.955912385550000e-6 4.270700888670000e-6
4.603230655370000e-6 4.954231125020001e-6 5.324458899930002e-6 5.714698716290000e-6
6.125764449149999e-6 6.558500152710001e-6 7.013781137060001e-6 7.492515082630002e-6
7.995643193710000e-6 8.524141392439999e-6 9.079021554530000e-6 9.661332788279999e-6
1.027216275840000e-5 1.091263905610000e-5 1.158393061720000e-5 1.228724918960000e-5
1.302385085270000e-5 1.379503758890000e-5 1.460215891110000e-5 1.544661354630000e-5
1.632985117850000e-5 1.725337425190000e-5 1.821873983800000e-5 1.922756156700000e-5
2.028151162700000e-5 2.138232283270000e-5 2.253179076690000e-5 2.373177599590000e-5
2.498420636270000e-5 2.629107936010000e-5 2.765446458620000e-5 2.907650628580000e-5
3.055942598040000e-5 3.210552518960000e-5 3.371718824720000e-5 3.539688521610000e-5
3.714717490360000e-5 3.897070798270001e-5 4.087023022140000e-5 4.284858582470000e-5
4.490872089260001e-5 4.705368699910000e-5 4.928664489470000e-5 5.161086833840000e-5
5.402974806290000e-5 5.654679587730000e-5 5.916564891289999e-5 6.189007401600001e-5
6.472397229400001e-5 6.767138381920001e-5 7.073649249590002e-5 7.392363109669999e-5
7.723728647390001e-5 8.068210495130000e-5 8.426289790440000e-5 8.798464753300001e-5
9.185251283489999e-5 9.587183578719999e-5 1.000481477410000e-4 1.043871760410000e-4
1.088948508700000e-4 1.135773123330000e-4 1.184409177910000e-4 1.234922494440000e-4
1.287381221780000e-4 1.341855916840000e-4 1.398419628610000e-4 1.457147985110000e-4
1.518119283260000e-4 1.581414582010000e-4 1.647117798590000e-4 1.715315808100000e-4
1.786098546660000e-4 1.859559117960000e-4 1.935793903660000e-4 2.014902677540000e-4
2.096988723580000e-4 2.182158958180000e-4 2.270524056620000e-4 2.362198583820000e-4
2.457301129740000e-4 2.555954449340000e-4 2.658285607530000e-4 2.764426128980000e-4
2.874512153250000e-4 2.988684595210001e-4 3.107089311000000e-4 3.229877269850000e-4
3.357204731660000e-4 3.489233430880001e-4 3.626130766670000e-4 3.768069999650000e-4
3.915230455470000e-4 4.067797735420000e-4 4.225963934280000e-4 4.389927865740001e-4
4.559895295630001e-4 4.736079183150000e-4 4.918699930480000e-4 5.107985641010000e-4
5.304172386500000e-4 5.507504483430000e-4 5.718234778959999e-4 5.936624946690000e-4
6.162945792740000e-4 6.397477572280000e-4 6.640510317070001e-4 6.892344174300000e-4
7.153289757110002e-4 7.423668507210000e-4 7.703813070029999e-4 7.994067682810000e-4
8.294788576089999e-4 8.606344389009999e-4 8.929116599060000e-4 9.263499966469999e-4
9.609902994110000e-4 9.968748403119998e-4 1.034047362500000e-3 1.072553131080000e-3
1.112438985730000e-3 1.153753395250000e-3 1.196546513830000e-3 1.240870239410000e-3
1.286778273960000e-3 1.334326185860000e-3 1.383571474430000e-3 1.434573636690000e-3
1.487394236420000e-3 1.542096975560000e-3 1.598747768150000e-3 1.657414816700000e-3
1.718168691320000e-3 1.781082411450000e-3 1.846231530490000e-3 1.913694223290000e-3
1.983551376699999e-3 2.055886683150000e-3 2.130786737550000e-3 2.208341137450000e-3
2.288642586660000e-3 2.371787002430001e-3 2.457873626350000e-3 2.547005138970000e-3
2.639287778440000e-3 2.734831463210000e-3 2.833749918910000e-3 2.936160809580000e-3
3.042185873460000e-3 3.151951063370000e-3 3.265586691940000e-3 3.383227581830000e-3
3.505013221070000e-3 3.631087923700000e-3 3.761600995990000e-3 3.896706908300001e-3
4.036565472810000e-3 4.181342027329999e-3 4.331207625499999e-3 4.486339233330000e-3
4.646919932560000e-3 4.813139130990001e-3 4.985192779910000e-3 5.163283599040001e-3
5.347621309050000e-3 5.538422872149999e-3 5.735912740720001e-3 5.940323114570000e-3
6.151894206870000e-3 6.370874519140001e-3 6.597521125660000e-3 6.832099967520000e-3
7.074886156640002e-3 7.326164290159999e-3 7.586228775510001e-3 7.855384166529999e-3
8.133945510899999e-3 8.422238709500000e-3 8.720600887800000e-3 9.029380779939999e-3
9.348939125740001e-3 9.679649081139999e-3 1.002189664260000e-2 1.037608108550000e-2
1.074261541800000e-2 1.112192684950000e-2 1.151445727520000e-2 1.192066377680000e-2
1.234101914040000e-2 1.277601239160000e-2 1.322614934830000e-2 1.369195319210000e-2
1.417396505950000e-2 1.467274465190000e-2 1.518887086670000e-2 1.572294244890000e-2
1.627557866520000e-2 1.684741999950000e-2 1.743912887270000e-2 1.805139038520000e-2
1.868491308520000e-2 1.934042976110000e-2 2.001869826180000e-2 2.072050234240000e-2
2.144665253850000e-2 2.219798707000000e-2 2.297537277300000e-2 2.377970606360000e-2
2.461191393250000e-2 2.547295497239999e-2 2.636382043899999e-2 2.728553534600000e-2
2.823915959620000e-2 2.922578914870000e-2 3.024655722440000e-2 3.130263555000000e-2
3.239523564150000e-2 3.352561013000000e-2 3.469505412910000e-2 3.590490664550000e-2
3.715655203560000e-2 3.845142150720000e-2 3.979099466920000e-2 4.117680112950000e-2
4.261042214410000e-2 4.409349231620000e-2 4.562770134950000e-2 4.721479585500000e-2
4.885658121440001e-2 5.055492349960000e-2 5.231175145210000e-2 5.412905852210001e-2
5.600890496940001e-2 5.795342002739999e-2 5.996480413280000e-2 6.204533122080001e-2
6.419735108870000e-2 6.642329182940000e-2 6.872566233550000e-2 7.110705487660001e-2
7.357014775080000e-2 7.611770801180000e-2 7.875259427400000e-2 8.147775959630000e-2
8.429625444610000e-2 8.721122974610001e-2 9.022594000360000e-2 9.334374652499999e-2
9.656812071679999e-2 9.990264747390000e-2 1.033510286560000e-1 1.069170866550000e-1
1.106047680510000e-1 1.144181473670000e-1 1.183614309020000e-1 1.224389606770000e-1
1.266552184580000e-1 1.310148298830000e-1 1.355225686800000e-1 1.401833609840000e-1
1.450022897410000e-1 1.499845992160000e-1 1.551356995870000e-1 1.604611716350000e-1
1.659667715300000e-1 1.716584356980000e-1 1.775422857840000e-1 1.836246337000000e-1
1.899119867550000e-1 1.964110528660000e-1 2.031287458490000e-1 2.100721907780000e-1
2.172487294150000e-1 2.246659257070000e-1 2.323315713350000e-1 2.402536913140000e-1
2.484405496410000e-1 2.569006549720000e-1 2.656427663310000e-1 2.746758988350000e-1
2.840093294150000e-1 2.936526025440000e-1 3.036155359370000e-1 3.139082262150000e-1
3.245410545260000e-1 3.355246920900000e-1 3.468701056650000e-1 3.585885629040000e-1
3.706916375840000e-1 3.831912146810000e-1 3.960994952700000e-1 4.094290012160000e-1
4.231925796360000e-1 4.374034070830001e-1 4.520749934350000e-1 4.672211854430000e-1
4.828561698930000e-1 4.989944763500000e-1 5.156509794330000e-1 5.328409005610000e-1
5.505798091380000e-1 5.688836231030000e-1 5.877686087860000e-1 6.072513800169999e-1
6.273488964060000e-1 6.480784607189999e-1 6.694577152910000e-1 6.915046373610000e-1
7.142375332699999e-1 7.376750314030000e-1 7.618360737940000e-1 7.867399062630001e-1
8.124060669980000e-1 8.388543734350000e-1 8.661049073280001e-1 8.941779978540000e-1
9.230942026220001e-1 9.528742864250001e-1 9.835391975760000e-1 1.015110041650000e0
1.047608052440000e0 1.081054559990000e0 1.115470955380000e0 1.150878652200000e0
1.187299044340000e0 1.224753459950000e0 1.263263111290000e0 1.302849040120000e0
1.343532058530000e0 1.385332684640000e0 1.428271073110000e0 1.472366939940000e0
1.517639481300000e0 1.564107285940000e0 1.611788240840000e0 1.660699429660000e0
1.710857023470000e0 1.762276163500000e0 1.814970835070000e0 1.868953732600000e0
1.924236114750000e0 1.980827649410000e0 2.038736247820000e0 2.097967887180000e0
2.158526421140000e0 2.220413377510000e0 2.283627742400000e0 2.348165730240000e0
2.414020538710000e0 2.481182088170000e0 2.549636744450000e0 2.619367024660000e0
2.690351285010000e0 2.762563390160000e0 2.835972363370000e0 2.910542016930000e0
2.986230562470000e0 3.062990200790000e0 3.140766691130000e0 3.219498899920000e0
3.299118329460000e0 3.379548627150000e0 3.460705076410000e0 3.542494070980000e0
3.624812574680000e0 3.707547569610000e0 3.790575496450000e0 3.873761691530000e0
3.956959826460000e0 4.040011357130000e0 4.122744990710000e0 4.204976180380000e0
4.286506659580000e0 4.367124029370000e0 4.446601414510000e0 4.524697206080000e0
4.601154910720000e0 4.675703128810000e0 4.748055686190000e0 4.817911946100000e0
4.884957329690000e0 4.948864075020000e0 5.009292264730000e0 5.065891152700000e0
5.118300818030000e0 5.166154171980000e0 5.209079337890000e0 5.246702416910000e0
5.278650641370000e0 5.304555904030000e0 5.324058633150000e0 5.336811961360000e0
5.342486109250000e0 5.340772873420000e0 5.331390072980000e0 5.314085769280000e0
5.288642033050000e0 5.254877992890000e0 5.212651863490000e0 5.161861626520000e0
5.102444029360000e0 5.034371585440000e0 4.957647319140000e0 4.872297110230000e0
4.778359677750000e0 4.675874516640000e0 4.564868482900000e0 4.445342226510000e0
4.317258299580000e0 4.180533503620000e0 4.035038829730000e0 3.880611075770000e0
3.717080683100000e0 3.544320159300000e0 3.362316047440000e0 3.171263823190000e0
2.971677891330000e0 2.764495797000000e0 2.551133557430000e0 2.333412767960000e0
2.113243615510000e0 1.892009091900000e0 1.671119224120000e0 1.452375599770000e0
1.238054555830000e0 1.030929102640000e0 8.342387624470000e-1 6.515862879960000e-1
4.867393191770000e-1 3.433183410320000e-1 2.243638584440000e-1 1.318010984920000e-1
6.586571719820000e-2 2.462129596500000e-2 3.779716036120000e-3 -2.905184674430000e-3
-2.438146057180000e-3 -6.137949280710000e-4 -1.000721046270000e-5 0.000000000000000e0
0.000000000000000e0 0.000000000000000e0 0.000000000000000e0 0.000000000000000e0
0.000000000000000e0 0.000000000000000e0 0.000000000000000e0 0.000000000000000e0
0.000000000000000e0 0.000000000000000e0 0.000000000000000e0 0.000000000000000e0
0.000000000000000e0 0.000000000000000e0 0.000000000000000e0 0.000000000000000e0
0.000000000000000e0 0.000000000000000e0 0.000000000000000e0 0.000000000000000e0
0.000000000000000e0 0.000000000000000e0 0.000000000000000e0 0.000000000000000e0
0.000000000000000e0 0.000000000000000e0 0.000000000000000e0 0.000000000000000e0
0.000000000000000e0 0.000000000000000e0 0.000000000000000e0 0.000000000000000e0
0.000000000000000e0 0.000000000000000e0 0.000000000000000e0 0.000000000000000e0
0.000000000000000e0 0.000000000000000e0 0.000000000000000e0 0.000000000000000e0
0.000000000000000e0 0.000000000000000e0 0.000000000000000e0 0.000000000000000e0
0.000000000000000e0 0.000000000000000e0 0.000000000000000e0 0.000000000000000e0
0.000000000000000e0 0.000000000000000e0 0.000000000000000e0 0.000000000000000e0
0.000000000000000e0 0.000000000000000e0 0.000000000000000e0 0.000000000000000e0
0.000000000000000e0 0.000000000000000e0 0.000000000000000e0 0.000000000000000e0
0.000000000000000e0 0.000000000000000e0 0.000000000000000e0 0.000000000000000e0
0.000000000000000e0 0.000000000000000e0 0.000000000000000e0 0.000000000000000e0
0.000000000000000e0 0.000000000000000e0 0.000000000000000e0 0.000000000000000e0
0.000000000000000e0 0.000000000000000e0 0.000000000000000e0 0.000000000000000e0
0.000000000000000e0 0.000000000000000e0 0.000000000000000e0 0.000000000000000e0
0.000000000000000e0 0.000000000000000e0 0.000000000000000e0 0.000000000000000e0
0.000000000000000e0 0.000000000000000e0 0.000000000000000e0 0.000000000000000e0
0.000000000000000e0 0.000000000000000e0 0.000000000000000e0 0.000000000000000e0
0.000000000000000e0 0.000000000000000e0 0.000000000000000e0 0.000000000000000e0
0.000000000000000e0 0.000000000000000e0 0.000000000000000e0 0.000000000000000e0
0.000000000000000e0 0.000000000000000e0 0.000000000000000e0 0.000000000000000e0
0.000000000000000e0 0.000000000000000e0 0.000000000000000e0 0.000000000000000e0
0.000000000000000e0 0.000000000000000e0 0.000000000000000e0 0.000000000000000e0
0.000000000000000e0 0.000000000000000e0 0.000000000000000e0 0.000000000000000e0
0.000000000000000e0 0.000000000000000e0 0.000000000000000e0 0.000000000000000e0
0.000000000000000e0 0.000000000000000e0 0.000000000000000e0 0.000000000000000e0
0.000000000000000e0 0.000000000000000e0 0.000000000000000e0 0.000000000000000e0
0.000000000000000e0 0.000000000000000e0 0.000000000000000e0 0.000000000000000e0
0.000000000000000e0 0.000000000000000e0 0.000000000000000e0 0.000000000000000e0
0.000000000000000e0 0.000000000000000e0 0.000000000000000e0 0.000000000000000e0
0.000000000000000e0 0.000000000000000e0 0.000000000000000e0 0.000000000000000e0
0.000000000000000e0 0.000000000000000e0 0.000000000000000e0 0.000000000000000e0
0.000000000000000e0 0.000000000000000e0 0.000000000000000e0 0.000000000000000e0
0.000000000000000e0 0.000000000000000e0 0.000000000000000e0 0.000000000000000e0
0.000000000000000e0 0.000000000000000e0 0.000000000000000e0 0.000000000000000e0
0.000000000000000e0 0.000000000000000e0 0.000000000000000e0 0.000000000000000e0
0.000000000000000e0 0.000000000000000e0 0.000000000000000e0 0.000000000000000e0
0.000000000000000e0 0.000000000000000e0 0.000000000000000e0 0.000000000000000e0
0.000000000000000e0 0.000000000000000e0 0.000000000000000e0 0.000000000000000e0
0.000000000000000e0 0.000000000000000e0 0.000000000000000e0 0.000000000000000e0
0.000000000000000e0 0.000000000000000e0 0.000000000000000e0 0.000000000000000e0
0.000000000000000e0 0.000000000000000e0 0.000000000000000e0 0.000000000000000e0
0.000000000000000e0 0.000000000000000e0 0.000000000000000e0 0.000000000000000e0
0.000000000000000e0 0.000000000000000e0 0.000000000000000e0 0.000000000000000e0
0.000000000000000e0 0.000000000000000e0 0.000000000000000e0 0.000000000000000e0
0.000000000000000e0 0.000000000000000e0 0.000000000000000e0 0.000000000000000e0
0.000000000000000e0 0.000000000000000e0 0.000000000000000e0 0.000000000000000e0
0.000000000000000e0 0.000000000000000e0 0.000000000000000e0 0.000000000000000e0
0.000000000000000e0 0.000000000000000e0 0.000000000000000e0 0.000000000000000e0
0.000000000000000e0 0.000000000000000e0 0.000000000000000e0 0.000000000000000e0
0.000000000000000e0 0.000000000000000e0 0.000000000000000e0 0.000000000000000e0
0.000000000000000e0 0.000000000000000e0 0.000000000000000e0 0.000000000000000e0
0.000000000000000e0 0.000000000000000e0 0.000000000000000e0 0.000000000000000e0
0.000000000000000e0 0.000000000000000e0 0.000000000000000e0 0.000000000000000e0
0.000000000000000e0 0.000000000000000e0 0.000000000000000e0 0.000000000000000e0
0.000000000000000e0 0.000000000000000e0 0.000000000000000e0 0.000000000000000e0
0.000000000000000e0 0.000000000000000e0 0.000000000000000e0 0.000000000000000e0
0.000000000000000e0 0.000000000000000e0 0.000000000000000e0 0.000000000000000e0
0.000000000000000e0
</PP_QIJ.3.3>
<PP_QIJ.3.4 first_index="3" second_index="4" composite_index="9">
0.000000000000000e0 -1.684707488310000e-9 -6.854513099760000e-9 -1.568816087590000e-8
-2.837155917920000e-8 -4.509804483040000e-8 -6.606865664460003e-8 -9.149241869710000e-8
-1.215866336580000e-7 -1.565771865500000e-7 -1.966988592870000e-7 -2.421956563880001e-7
-2.933211422280000e-7 -3.503387902660000e-7 -4.135223446309999e-7 -4.831561945250000e-7
-5.595357618850000e-7 -6.429679027529999e-7 -7.337713228550000e-7 -8.322770078610001e-7
-9.388286688629998e-7 -1.053783203580000e-6 -1.177511173860000e-6 -1.310397300000000e-6
-1.452840972600000e-6 -1.605256782310000e-6 -1.768075068420000e-6 -1.941742486700000e-6
-2.126722597200001e-6 -2.323496472850000e-6 -2.532563329420000e-6 -2.754441177640000e-6
-2.989667498300000e-6 -3.238799941070000e-6 -3.502417047840000e-6 -3.781119001560000e-6
-4.075528401320000e-6 -4.386291064690001e-6 -4.714076858189999e-6 -5.059580556899999e-6
-5.423522734320000e-6 -5.806650683289999e-6 -6.209739369309998e-6 -6.633592417259999e-6
-7.079043132660000e-6 -7.546955558730000e-6 -8.038225570460002e-6 -8.553782007040001e-6
-9.094587843819999e-6 -9.661641405380001e-6 -1.025597762100000e-5 -1.087866932410000e-5
-1.153082859680000e-5 -1.221360816230000e-5 -1.292820282490000e-5 -1.367585096070000e-5
-1.445783606110000e-5 -1.527548832910000e-5 -1.613018633180000e-5 -1.702335871100000e-5
-1.795648595300000e-5 -1.893110221990000e-5 -1.994879724590000e-5 -2.101121829810000e-5
-2.212007220760000e-5 -2.327712746970001e-5 -2.448421641840000e-5 -2.574323747590000e-5
-2.705615748170000e-5 -2.842501410110000e-5 -2.985191831910000e-5 -3.133905702070000e-5
-3.288869566060000e-5 -3.450318102630000e-5 -3.618494409750000e-5 -3.793650300430000e-5
-3.976046608939999e-5 -4.165953507580000e-5 -4.363650834560000e-5 -4.569428433170001e-5
-4.783586502880000e-5 -5.006435962540000e-5 -5.238298826270000e-5 -5.479508592360000e-5
-5.730410645740001e-5 -5.991362674400000e-5 -6.262735100310000e-5 -6.544911525220000e-5
-6.838289192110000e-5 -7.143279462469999e-5 -7.460308310300000e-5 -7.789816833220000e-5
-8.132261781250000e-5 -8.488116104060001e-5 -8.857869517139999e-5 -9.242029087590000e-5
-9.641119840360000e-5 -1.005568538540000e-4 -1.048628856640000e-4 -1.093351213270000e-4
-1.139795943350000e-4 -1.188025513710000e-4 -1.238104597430000e-4 -1.290100150810000e-4
-1.344081492990000e-4 -1.400120388320000e-4 -1.458291131610000e-4 -1.518670636290000e-4
-1.581338525660000e-4 -1.646377227330000e-4 -1.713872070810000e-4 -1.783911388670000e-4
-1.856586620990000e-4 -1.931992423620000e-4 -2.010226780030000e-4 -2.091391117170000e-4
-2.175590425220000e-4 -2.262933381540000e-4 -2.353532478960000e-4 -2.447504158400000e-4
-2.544968946160000e-4 -2.646051595920000e-4 -2.750881235680000e-4 -2.859591519780000e-4
-2.972320786130000e-4 -3.089212218950000e-4 -3.210414017060001e-4 -3.336079568080000e-4
-3.466367628550000e-4 -3.601442510370001e-4 -3.741474273590000e-4 -3.886638925950001e-4
-4.037118629290001e-4 -4.193101913030000e-4 -4.354783895090001e-4 -4.522366510459999e-4
-4.696058747580000e-4 -4.876076892950000e-4 -5.062644784180000e-4 -5.255994071750001e-4
-5.456364489819999e-4 -5.664004136399999e-4 -5.879169763180001e-4 -6.102127075329999e-4
-6.333151041730001e-4 -6.572526215780000e-4 -6.820547067400000e-4 -7.077518326409999e-4
-7.343755337769999e-4 -7.619584429020000e-4 -7.905343290540001e-4 -8.201381368700000e-4
-8.508060272750001e-4 -8.825754195649999e-4 -9.154850349360000e-4 -9.495749415260001e-4
-9.848866009920000e-4 -1.021462916700000e-3 -1.059348283590000e-3 -1.098588639710000e-3
-1.139231519590000e-3 -1.181326109390000e-3 -1.224923304000000e-3 -1.270075766060000e-3
-1.316837987040000e-3 -1.365266350410000e-3 -1.415419196970000e-3 -1.467356892470000e-3
-1.521141897480000e-3 -1.576838839740000e-3 -1.634514588950000e-3 -1.694238334110000e-3
-1.756081663610000e-3 -1.820118647950000e-3 -1.886425925350000e-3 -1.955082790380000e-3
-2.026171285430000e-3 -2.099776295580000e-3 -2.175985646460000e-3 -2.254890205670000e-3
-2.336583987580000e-3 -2.421164261700000e-3 -2.508731664850000e-3 -2.599390317070000e-3
-2.693247941600000e-3 -2.790415988850000e-3 -2.891009764740000e-3 -2.995148563300000e-3
-3.102955803900000e-3 -3.214559173120001e-3 -3.330090771510000e-3 -3.449687265260000e-3
-3.573490043200000e-3 -3.701645379009999e-3 -3.834304599050000e-3 -3.971624255880001e-3
-4.113766307690000e-3 -4.260898303849999e-3 -4.413193576780000e-3 -4.570831440310000e-3
-4.733997394819999e-3 -4.902883339360001e-3 -5.077687790930000e-3 -5.258616111240000e-3
-5.445880741120000e-3 -5.639701442950001e-3 -5.840305551229999e-3 -6.047928231620001e-3
-6.262812748849999e-3 -6.485210743570001e-3 -6.715382518610000e-3 -6.953597334880000e-3
-7.200133717250000e-3 -7.455279770780000e-3 -7.719333507510000e-3 -7.992603184340002e-3
-8.275407652160000e-3 -8.568076716800000e-3 -8.870951512020000e-3 -9.184384885050001e-3
-9.508741794930000e-3 -9.844399724319999e-3 -1.019174910490000e-2 -1.055119375720000e-2
-1.092315134450000e-2 -1.130805384300000e-2 -1.170634802590000e-2 -1.211849596530000e-2
-1.254497554960000e-2 -1.298628101840000e-2 -1.344292351470000e-2 -1.391543165620000e-2
-1.440435212450000e-2 -1.491025027370000e-2 -1.543371076010000e-2 -1.597533819080000e-2
-1.653575779470000e-2 -1.711561611530000e-2 -1.771558172560000e-2 -1.833634596630000e-2
-1.897862370840000e-2 -1.964315413980000e-2 -2.033070157770000e-2 -2.104205630720000e-2
-2.177803544630000e-2 -2.253948383910000e-2 -2.332727497740000e-2 -2.414231195130000e-2
-2.498552843030000e-2 -2.585788967540000e-2 -2.676039358280000e-2 -2.769407176070000e-2
-2.865999063970000e-2 -2.965925261770000e-2 -3.069299724020000e-2 -3.176240241780000e-2
-3.286868568040000e-2 -3.401310547000000e-2 -3.519696247360000e-2 -3.642160099520000e-2
-3.768841037130000e-2 -3.899882642650000e-2 -4.035433297460000e-2 -4.175646336330000e-2
-4.320680206480000e-2 -4.470698631260000e-2 -4.625870778710000e-2 -4.786371434839999e-2
-4.952381182050000e-2 -5.124086582529999e-2 -5.301680366850000e-2 -5.485361627900000e-2
-5.675336020160000e-2 -5.871815964480000e-2 -6.075020858409999e-2 -6.285177292270000e-2
-6.502519270880001e-2 -6.727288441239999e-2 -6.959734326020000e-2 -7.200114563180000e-2
-7.448695151539999e-2 -7.705750702510000e-2 -7.971564698090000e-2 -8.246429754950000e-2
-8.530647894900000e-2 -8.824530821609999e-2 -9.128400203600000e-2 -9.442587963600001e-2
-9.767436574200000e-2 -1.010329935970000e-1 -1.045054080430000e-1 -1.080953686640000e-1
-1.118067529900000e-1 -1.156435597610000e-1 -1.196099122470000e-1 -1.237100616320000e-1
-1.279483904460000e-1 -1.323294160550000e-1 -1.368577941980000e-1 -1.415383225760000e-1
-1.463759444850000e-1 -1.513757524900000e-1 -1.565429921340000e-1 -1.618830656890000e-1
-1.674015359260000e-1 -1.731041299130000e-1 -1.789967428290000e-1 -1.850854417890000e-1
-1.913764696740000e-1 -1.978762489520000e-1 -2.045913854940000e-1 -2.115286723570000e-1
-2.186950935430000e-1 -2.260978277130000e-1 -2.337442518430000e-1 -2.416419448090000e-1
-2.497986908970000e-1 -2.582224832070000e-1 -2.669215269500000e-1 -2.759042426020000e-1
-2.851792689230000e-1 -2.947554657880000e-1 -3.046419168370000e-1 -3.148479319020000e-1
-3.253830491950000e-1 -3.362570372250000e-1 -3.474798964230000e-1 -3.590618604330000e-1
-3.710133970480000e-1 -3.833452087480000e-1 -3.960682328090000e-1 -4.091936409390000e-1
-4.227328384050000e-1 -4.366974625999999e-1 -4.510993810090000e-1 -4.659506885210000e-1
-4.812637040400000e-1 -4.970509663310000e-1 -5.133252290500000e-1 -5.300994548930000e-1
-5.473868088000000e-1 -5.652006501420001e-1 -5.835545238260000e-1 -6.024621502360000e-1
-6.219374139270000e-1 -6.419943509990000e-1 -6.626471350520000e-1 -6.839100616300000e-1
-7.057975310660000e-1 -7.283240296080001e-1 -7.515041087449999e-1 -7.753523625840000e-1
-7.998834031960000e-1 -8.251118337790000e-1 -8.510522195280000e-1 -8.777190560539999e-1
-9.051267352320000e-1 -9.332895083040000e-1 -9.622214460890000e-1 -9.919363961400000e-1
-1.022447936650000e0 -1.053769326960000e0 -1.085913454380000e0 -1.118892777280000e0
-1.152719264080000e0 -1.187404327900000e0 -1.222958756820000e0 -1.259392639240000e0
-1.296715284170000e0 -1.334935136240000e0 -1.374059684920000e0 -1.414095367780000e0
-1.455047467320000e0 -1.496920001060000e0 -1.539715604380000e0 -1.583435405750000e0
-1.628078893840000e0 -1.673643776000000e0 -1.720125827520000e0 -1.767518731210000e0
-1.815813906510000e0 -1.865000327700000e0 -1.915064330250000e0 -1.965989404860000e0
-2.017755978250000e0 -2.070341180010000e0 -2.123718594760000e0 -2.177857998760000e0
-2.232725080190000e0 -2.288281142540000e0 -2.344482790170000e0 -2.401281595700000e0
-2.458623748670000e0 -2.516449685180000e0 -2.574693698660000e0 -2.633283531800000e0
-2.692139950680000e0 -2.751176301950000e0 -2.810298055190000e0 -2.869402332770000e0
-2.928377430820000e0 -2.987102335840000e0 -3.045446242720000e0 -3.103268081470000e0
-3.160416061700000e0 -3.216727245820000e0 -3.272027164060000e0 -3.326129487060000e0
-3.378835774330000e0 -3.429935319990000e0 -3.479205120240000e0 -3.526409990380000e0
-3.571302862540000e0 -3.613625298540000e0 -3.653108255300000e0 -3.689473142820000e0
-3.722433216560000e0 -3.751695346740000e0 -3.776962206320000e0 -3.797934916440000e0
-3.814316182650000e0 -3.825813946370000e0 -3.832145562810000e0 -3.833042498550000e0
-3.828255517870000e0 -3.817560296060000e0 -3.800763359130000e0 -3.777708202820000e0
-3.748281387840000e0 -3.712418344920000e0 -3.670108551870000e0 -3.621399668910000e0
-3.566400141420000e0 -3.505279706700000e0 -3.438267182670000e0 -3.365644883320000e0
-3.287739014480000e0 -3.204905475920000e0 -3.117510656980000e0 -3.025907096580000e0
-2.930404318680000e0 -2.831235791760000e0 -2.728523831160000e0 -2.622245392740000e0
-2.512203098820000e0 -2.398007448760000e0 -2.279077874750000e0 -2.154671851890000e0
-2.023952192530000e0 -1.886102151720000e0 -1.740494743040000e0 -1.586914663930000e0
-1.425815295090000e0 -1.258564587230000e0 -1.087585143380000e0 -9.162149318430000e-1
-7.480097152320000e-1 -5.854884506409999e-1 -4.308212615800000e-1 -2.864470113900000e-1
-1.550638602260000e-1 -3.952486249640000e-2 5.733532031530000e-2 1.329526416580000e-1
1.853680379480000e-1 2.136342103170000e-1 2.182628165250000e-1 2.016448039000000e-1
1.683262563180000e-1 1.249609106780000e-1 7.970838003350000e-2 4.085503482289999e-2
1.460518252530000e-2 2.499837545620000e-3 3.220911566820001e-5 0.000000000000000e0
0.000000000000000e0 0.000000000000000e0 0.000000000000000e0 0.000000000000000e0
0.000000000000000e0 0.000000000000000e0 0.000000000000000e0 0.000000000000000e0
0.000000000000000e0 0.000000000000000e0 0.000000000000000e0 0.000000000000000e0
0.000000000000000e0 0.000000000000000e0 0.000000000000000e0 0.000000000000000e0
0.000000000000000e0 0.000000000000000e0 0.000000000000000e0 0.000000000000000e0
0.000000000000000e0 0.000000000000000e0 0.000000000000000e0 0.000000000000000e0
0.000000000000000e0 0.000000000000000e0 0.000000000000000e0 0.000000000000000e0
0.000000000000000e0 0.000000000000000e0 0.000000000000000e0 0.000000000000000e0
0.000000000000000e0 0.000000000000000e0 0.000000000000000e0 0.000000000000000e0
0.000000000000000e0 0.000000000000000e0 0.000000000000000e0 0.000000000000000e0
0.000000000000000e0 0.000000000000000e0 0.000000000000000e0 0.000000000000000e0
0.000000000000000e0 0.000000000000000e0 0.000000000000000e0 0.000000000000000e0
0.000000000000000e0 0.000000000000000e0 0.000000000000000e0 0.000000000000000e0
0.000000000000000e0 0.000000000000000e0 0.000000000000000e0 0.000000000000000e0
0.000000000000000e0 0.000000000000000e0 0.000000000000000e0 0.000000000000000e0
0.000000000000000e0 0.000000000000000e0 0.000000000000000e0 0.000000000000000e0
0.000000000000000e0 0.000000000000000e0 0.000000000000000e0 0.000000000000000e0
0.000000000000000e0 0.000000000000000e0 0.000000000000000e0 0.000000000000000e0
0.000000000000000e0 0.000000000000000e0 0.000000000000000e0 0.000000000000000e0
0.000000000000000e0 0.000000000000000e0 0.000000000000000e0 0.000000000000000e0
0.000000000000000e0 0.000000000000000e0 0.000000000000000e0 0.000000000000000e0
0.000000000000000e0 0.000000000000000e0 0.000000000000000e0 0.000000000000000e0
0.000000000000000e0 0.000000000000000e0 0.000000000000000e0 0.000000000000000e0
0.000000000000000e0 0.000000000000000e0 0.000000000000000e0 0.000000000000000e0
0.000000000000000e0 0.000000000000000e0 0.000000000000000e0 0.000000000000000e0
0.000000000000000e0 0.000000000000000e0 0.000000000000000e0 0.000000000000000e0
0.000000000000000e0 0.000000000000000e0 0.000000000000000e0 0.000000000000000e0
0.000000000000000e0 0.000000000000000e0 0.000000000000000e0 0.000000000000000e0
0.000000000000000e0 0.000000000000000e0 0.000000000000000e0 0.000000000000000e0
0.000000000000000e0 0.000000000000000e0 0.000000000000000e0 0.000000000000000e0
0.000000000000000e0 0.000000000000000e0 0.000000000000000e0 0.000000000000000e0
0.000000000000000e0 0.000000000000000e0 0.000000000000000e0 0.000000000000000e0
0.000000000000000e0 0.000000000000000e0 0.000000000000000e0 0.000000000000000e0
0.000000000000000e0 0.000000000000000e0 0.000000000000000e0 0.000000000000000e0
0.000000000000000e0 0.000000000000000e0 0.000000000000000e0 0.000000000000000e0
0.000000000000000e0 0.000000000000000e0 0.000000000000000e0 0.000000000000000e0
0.000000000000000e0 0.000000000000000e0 0.000000000000000e0 0.000000000000000e0
0.000000000000000e0 0.000000000000000e0 0.000000000000000e0 0.000000000000000e0
0.000000000000000e0 0.000000000000000e0 0.000000000000000e0 0.000000000000000e0
0.000000000000000e0 0.000000000000000e0 0.000000000000000e0 0.000000000000000e0
0.000000000000000e0 0.000000000000000e0 0.000000000000000e0 0.000000000000000e0
0.000000000000000e0 0.000000000000000e0 0.000000000000000e0 0.000000000000000e0
0.000000000000000e0 0.000000000000000e0 0.000000000000000e0 0.000000000000000e0
0.000000000000000e0 0.000000000000000e0 0.000000000000000e0 0.000000000000000e0
0.000000000000000e0 0.000000000000000e0 0.000000000000000e0 0.000000000000000e0
0.000000000000000e0 0.000000000000000e0 0.000000000000000e0 0.000000000000000e0
0.000000000000000e0 0.000000000000000e0 0.000000000000000e0 0.000000000000000e0
0.000000000000000e0 0.000000000000000e0 0.000000000000000e0 0.000000000000000e0
0.000000000000000e0 0.000000000000000e0 0.000000000000000e0 0.000000000000000e0
0.000000000000000e0 0.000000000000000e0 0.000000000000000e0 0.000000000000000e0
0.000000000000000e0 0.000000000000000e0 0.000000000000000e0 0.000000000000000e0
0.000000000000000e0 0.000000000000000e0 0.000000000000000e0 0.000000000000000e0
0.000000000000000e0 0.000000000000000e0 0.000000000000000e0 0.000000000000000e0
0.000000000000000e0 0.000000000000000e0 0.000000000000000e0 0.000000000000000e0
0.000000000000000e0 0.000000000000000e0 0.000000000000000e0 0.000000000000000e0
0.000000000000000e0 0.000000000000000e0 0.000000000000000e0 0.000000000000000e0
0.000000000000000e0 0.000000000000000e0 0.000000000000000e0 0.000000000000000e0
0.000000000000000e0 0.000000000000000e0 0.000000000000000e0 0.000000000000000e0
0.000000000000000e0 0.000000000000000e0 0.000000000000000e0 0.000000000000000e0
0.000000000000000e0 0.000000000000000e0 0.000000000000000e0 0.000000000000000e0
0.000000000000000e0 0.000000000000000e0 0.000000000000000e0 0.000000000000000e0
0.000000000000000e0 0.000000000000000e0 0.000000000000000e0 0.000000000000000e0
0.000000000000000e0 0.000000000000000e0 0.000000000000000e0 0.000000000000000e0
0.000000000000000e0
</PP_QIJ.3.4>
<PP_QIJ.4.4 first_index="4" second_index="4" composite_index="10">
0.000000000000000e0 1.508680428740000e-9 6.138317679769997e-9 1.404897967850000e-8
2.540715010340000e-8 4.038596492420000e-8 5.916545735760002e-8 8.193281153530002e-8
1.088826251890000e-7 1.402171816680000e-7 1.761467316180000e-7 2.168897846530000e-7
2.626734113780000e-7 3.137335561170000e-7 3.703153607240000e-7 4.326734998679999e-7
5.010725281790000e-7 5.757872396920001e-7 6.571030399890000e-7 7.453163315169999e-7
8.407349125060001e-7 9.436783899909999e-7 1.054478607410000e-6 1.173480087310000e-6
1.301040489620000e-6 1.437531086210000e-6 1.583337251980000e-6 1.738858973480000e-6
1.904511375260000e-6 2.080725264880000e-6 2.267947697030000e-6 2.466642557530000e-6
2.677291167860000e-6 2.900392911000000e-6 3.136465879140000e-6 3.386047544320001e-6
3.649695452480000e-6 3.927987941990000e-6 4.221524887290000e-6 4.530928468780000e-6
4.856843969560000e-6 5.199940600230000e-6 5.560912352530000e-6 5.940478882979999e-6
6.339386427410000e-6 6.758408747570001e-6 7.198348110880000e-6 7.660036304470001e-6
8.144335684749999e-6 8.652140263680000e-6 9.184376833039998e-6 9.742006128019998e-6
1.032602403150000e-5 1.093746282060000e-5 1.157739245630000e-5 1.224692191880000e-5
1.294720058900000e-5 1.367941967830000e-5 1.444481370890000e-5 1.524466204460000e-5
1.608029047640000e-5 1.695307286250000e-5 1.786443282580000e-5 1.881584551040000e-5
1.980883939990000e-5 2.084499819850000e-5 2.192596277810000e-5 2.305343319280000e-5
2.422917076400000e-5 2.545500023830000e-5 2.673281201970000e-5 2.806456448060000e-5
2.945228635250000e-5 3.089807920030000e-5 3.240411998270000e-5 3.397266370140000e-5
3.560604614300000e-5 3.730668671580000e-5 3.907709138550000e-5 4.091985571280000e-5
4.283766799730000e-5 4.483331252950000e-5 4.690967295709999e-5 4.906973576739999e-5
5.131659389099999e-5 5.365345043110001e-5 5.608362252169999e-5 5.861054532000001e-5
6.123777613800002e-5 6.396899871670001e-5 6.680802764939999e-5 6.975881295819999e-5
7.282544482939999e-5 7.601215851330000e-5 7.932333939400000e-5 8.276352823510001e-5
8.633742660760001e-5 9.004990250539999e-5 9.390599615650000e-5 9.791092603459999e-5
1.020700950810000e-4 1.063890971390000e-4 1.108737236150000e-4 1.155299703690000e-4
1.203640448420000e-4 1.253823734330000e-4 1.305916091330000e-4 1.359986394150000e-4
1.416105944100000e-4 1.474348553560000e-4 1.534790633450000e-4 1.597511283690000e-4
1.662592386840000e-4 1.730118704920000e-4 1.800177979640000e-4 1.872861036090000e-4
1.948261889970000e-4 2.026477858560000e-4 2.107609675570000e-4 2.191761609900000e-4
2.279041588560000e-4 2.369561323750000e-4 2.463436444490000e-4 2.560786632650001e-4
2.661735763739999e-4 2.766412052640000e-4 2.874948204210000e-4 2.987481569260000e-4
3.104154305810000e-4 3.225113545970000e-4 3.350511568570000e-4 3.480505977740000e-4
3.615259887720001e-4 3.754942113930000e-4 3.899727370779999e-4 4.049796476240000e-4
4.205336563410000e-4 4.366541299550001e-4 4.533611112510000e-4 4.706753425070000e-4
4.886182897340000e-4 5.072121677509999e-4 5.264799661290000e-4 5.464454760210000e-4
5.671333179280000e-4 5.885689704189999e-4 6.107787998320000e-4 6.337900910149998e-4
6.576310791110000e-4 6.823309824489999e-4 7.079200365639999e-4 7.344295293859999e-4
7.618918376500000e-4 7.903404645470000e-4 8.198100786840000e-4 8.503365543739999e-4
8.819570133250000e-4 9.147098677480001e-4 9.486348649649999e-4 9.837731335380001e-4
1.020167230990000e-3 1.057861193160000e-3 1.096900585290000e-3 1.137332554790000e-3
1.179205885900000e-3 1.222571056190000e-3 1.267480295000000e-3 1.313987643880000e-3
1.362149019140000e-3 1.412022276500000e-3 1.463667278010000e-3 1.517145961200000e-3
1.572522410660000e-3 1.629862932040000e-3 1.689236128620000e-3 1.750712980450000e-3
1.814366926260000e-3 1.880273948100000e-3 1.948512659000000e-3 2.019164393470000e-3
2.092313301230000e-3 2.168046444060000e-3 2.246453896030000e-3 2.327628847060000e-3
2.411667710140000e-3 2.498670232090000e-3 2.588739608170000e-3 2.681982600590000e-3
2.778509661030000e-3 2.878435057370000e-3 2.981877004750000e-3 3.088957800990000e-3
3.199803966769999e-3 3.314546390430000e-3 3.433320477830000e-3 3.556266307150000e-3
3.683528789099999e-3 3.815257832420000e-3 3.951608515110000e-3 4.092741261390000e-3
4.238822024670000e-3 4.390022476720000e-3 4.546520203240000e-3 4.708498906000000e-3
4.876148611830001e-3 5.049665888690001e-3 5.229254068970000e-3 5.415123480320000e-3
5.607491684279999e-3 5.806583722880000e-3 6.012632373540000e-3 6.225878412590000e-3
6.446570887460000e-3 6.674967398170000e-3 6.911334388069999e-3 7.155947444390000e-3
7.409091608810002e-3 7.671061698320001e-3 7.942162636770000e-3 8.222709797540000e-3
8.513029357409998e-3 8.813458662290000e-3 9.124346604999999e-3 9.446054015530001e-3
9.778954064210000e-3 1.012343267810000e-2 1.047988897100000e-2 1.084873568790000e-2
1.123039966350000e-2 1.162532229620000e-2 1.203396003700000e-2 1.245678489510000e-2
1.289428495900000e-2 1.334696493520000e-2 1.381534670430000e-2 1.429996989420000e-2
1.480139247290000e-2 1.532019135970000e-2 1.585696305580000e-2 1.641232429550000e-2
1.698691271800000e-2 1.758138756010000e-2 1.819643037130000e-2 1.883274575140000e-2
1.949106211070000e-2 2.017213245500000e-2 2.087673519390000e-2 2.160567497530000e-2
2.235978354480000e-2 2.313992063220000e-2 2.394697486510000e-2 2.478186470960000e-2
2.564553944110000e-2 2.653898014270000e-2 2.746320073490000e-2 2.841924903550000e-2
2.940820785090000e-2 3.043119610040001e-2 3.148936997200000e-2 3.258392411370000e-2
3.371609285780000e-2 3.488715148120000e-2 3.609841750120000e-2 3.735125200850000e-2
3.864706103670001e-2 3.998729697060000e-2 4.137345999310000e-2 4.280709957110000e-2
4.428981598230000e-2 4.582326188150000e-2 4.740914390950000e-2 4.904922434280000e-2
5.074532278630000e-2 5.249931790870001e-2 5.431314922080000e-2 5.618881889830000e-2
5.812839364760000e-2 6.013400661680000e-2 6.220785935039999e-2 6.435222378890000e-2
6.656944431270000e-2 6.886193983100000e-2 7.123220591390000e-2 7.368281696990000e-2
7.621642846550001e-2 7.883577918860000e-2 8.154369355389999e-2 8.434308394950001e-2
8.723695312369999e-2 9.022839661119999e-2 9.332060519610000e-2 9.651686741130000e-2
9.982057207150000e-2 1.032352108380000e-1 1.067643808110000e-1 1.104117871530000e-1
1.141812457300000e-1 1.180766857730000e-1 1.221021525620000e-1 1.262618101110000e-1
1.305599438720000e-1 1.350009634290000e-1 1.395894051980000e-1 1.443299351110000e-1
1.492273512860000e-1 1.542865866750000e-1 1.595127116750000e-1 1.649109367020000e-1
1.704866147170000e-1 1.762452436900000e-1 1.821924689930000e-1 1.883340857120000e-1
1.946760408640000e-1 2.012244355080000e-1 2.079855267280000e-1 2.149657294840000e-1
2.221716183030000e-1 2.296099287990000e-1 2.372875590070000e-1 2.452115704930000e-1
2.533891892410000e-1 2.618278062800000e-1 2.705349780300000e-1 2.795184263410000e-1
2.887860381950000e-1 2.983458650490000e-1 3.082061217830000e-1 3.183751852130000e-1
3.288615921520000e-1 3.396740369670000e-1 3.508213685980000e-1 3.623125870010000e-1
3.741568389750000e-1 3.863634133140000e-1 3.989417352560000e-1 4.119013601670000e-1
4.252519664060000e-1 4.390033473370000e-1 4.531654023970000e-1 4.677481272000000e-1
4.827616025830000e-1 4.982159825440000e-1 5.141214810130000e-1 5.304883573630001e-1
5.473269006150000e-1 5.646474122390000e-1 5.824601874920000e-1 6.007754951940000e-1
6.196035558739999e-1 6.389545181860000e-1 6.588384335170000e-1 6.792652286830000e-1
7.002446766169999e-1 7.217863649600000e-1 7.438996624370001e-1 7.665936829150000e-1
7.898772470410000e-1 8.137588413170000e-1 8.382465745270000e-1 8.633481313559999e-1
8.890707230840000e-1 9.154210352210001e-1 9.424051719150000e-1 9.700285970030000e-1
9.982960715250000e-1 1.027211587520000e0 1.056778297950000e0 1.086998442510000e0
1.117873269110000e0 1.149402950860000e0 1.181586498230000e0 1.214421666140000e0
1.247904855680000e0 1.282031010160000e0 1.316793505070000e0 1.352184031700000e0
1.388192473750000e0 1.424806776780000e0 1.462012809730000e0 1.499794218140000e0
1.538132268380000e0 1.577005682260000e0 1.616390461460000e0 1.656259700800000e0
1.696583389940000e0 1.737328202310000e0 1.778457270830000e0 1.819929949260000e0
1.861701558640000e0 1.903723117810000e0 1.945941057440000e0 1.988296916880000e0
2.030727023440000e0 2.073162153790000e0 2.115527177660000e0 2.157740684220000e0
2.199714592140000e0 2.241353744950000e0 2.282555494050000e0 2.323209272770000e0
2.363196165960000e0 2.402388480990000e0 2.440649327790000e0 2.477832217340000e0
2.513780690310000e0 2.548327990140000e0 2.581296797680000e0 2.612499047750000e0
2.641735851540000e0 2.668797552530000e0 2.693463947960000e0 2.715504711620000e0
2.734680058540000e0 2.750741695820000e0 2.763434107770000e0 2.772496226300000e0
2.777663539680000e0 2.778670692530000e0 2.775254628340000e0 2.767158320590000e0
2.754135129690000e0 2.735953809430000e0 2.712404166910000e0 2.683303353110000e0
2.648502726180000e0 2.607895184370000e0 2.561422810380000e0 2.509084600950000e0
2.450943977090000e0 2.387135679250000e0 2.317871551780000e0 2.243444614350000e0
2.164230710710000e0 2.080686926470000e0 1.993345889180000e0 1.902805024870000e0
1.809709868030000e0 1.714730637800000e0 1.618531540050000e0 1.521732678770000e0
1.424865112610000e0 1.328320529430000e0 1.232298285070000e0 1.136754199140000e0
1.041357523540000e0 9.454648334140000e-1 8.481220559440001e-1 7.481080760610000e-1
6.440346604079999e-1 5.345166664120001e-1 4.184217713070000e-1 2.951973036630000e-1
1.652486211170000e-1 3.030194787280000e-2 -1.063856311300000e-1 -2.402203890820000e-1
-3.662840705340000e-1 -4.811155927340000e-1 -5.819144197640000e-1 -6.657138989050000e-1
-7.294673011560000e-1 -7.702562456590000e-1 -7.855814983229999e-1 -7.737370580289999e-1
-7.342552423860001e-1 -6.683896703849999e-1 -5.795720539700000e-1 -4.737355444540000e-1
-3.593430734100000e-1 -2.469033844660000e-1 -1.477289472480000e-1 -7.175327429840000e-2
-2.450409503140000e-2 -4.033074221900001e-3 -5.023685767470000e-5 0.000000000000000e0
0.000000000000000e0 0.000000000000000e0 0.000000000000000e0 0.000000000000000e0
0.000000000000000e0 0.000000000000000e0 0.000000000000000e0 0.000000000000000e0
0.000000000000000e0 0.000000000000000e0 0.000000000000000e0 0.000000000000000e0
0.000000000000000e0 0.000000000000000e0 0.000000000000000e0 0.000000000000000e0
0.000000000000000e0 0.000000000000000e0 0.000000000000000e0 0.000000000000000e0
0.000000000000000e0 0.000000000000000e0 0.000000000000000e0 0.000000000000000e0
0.000000000000000e0 0.000000000000000e0 0.000000000000000e0 0.000000000000000e0
0.000000000000000e0 0.000000000000000e0 0.000000000000000e0 0.000000000000000e0
0.000000000000000e0 0.000000000000000e0 0.000000000000000e0 0.000000000000000e0
0.000000000000000e0 0.000000000000000e0 0.000000000000000e0 0.000000000000000e0
0.000000000000000e0 0.000000000000000e0 0.000000000000000e0 0.000000000000000e0
0.000000000000000e0 0.000000000000000e0 0.000000000000000e0 0.000000000000000e0
0.000000000000000e0 0.000000000000000e0 0.000000000000000e0 0.000000000000000e0
0.000000000000000e0 0.000000000000000e0 0.000000000000000e0 0.000000000000000e0
0.000000000000000e0 0.000000000000000e0 0.000000000000000e0 0.000000000000000e0
0.000000000000000e0 0.000000000000000e0 0.000000000000000e0 0.000000000000000e0
0.000000000000000e0 0.000000000000000e0 0.000000000000000e0 0.000000000000000e0
0.000000000000000e0 0.000000000000000e0 0.000000000000000e0 0.000000000000000e0
0.000000000000000e0 0.000000000000000e0 0.000000000000000e0 0.000000000000000e0
0.000000000000000e0 0.000000000000000e0 0.000000000000000e0 0.000000000000000e0
0.000000000000000e0 0.000000000000000e0 0.000000000000000e0 0.000000000000000e0
0.000000000000000e0 0.000000000000000e0 0.000000000000000e0 0.000000000000000e0
0.000000000000000e0 0.000000000000000e0 0.000000000000000e0 0.000000000000000e0
0.000000000000000e0 0.000000000000000e0 0.000000000000000e0 0.000000000000000e0
0.000000000000000e0 0.000000000000000e0 0.000000000000000e0 0.000000000000000e0
0.000000000000000e0 0.000000000000000e0 0.000000000000000e0 0.000000000000000e0
0.000000000000000e0 0.000000000000000e0 0.000000000000000e0 0.000000000000000e0
0.000000000000000e0 0.000000000000000e0 0.000000000000000e0 0.000000000000000e0
0.000000000000000e0 0.000000000000000e0 0.000000000000000e0 0.000000000000000e0
0.000000000000000e0 0.000000000000000e0 0.000000000000000e0 0.000000000000000e0
0.000000000000000e0 0.000000000000000e0 0.000000000000000e0 0.000000000000000e0
0.000000000000000e0 0.000000000000000e0 0.000000000000000e0 0.000000000000000e0
0.000000000000000e0 0.000000000000000e0 0.000000000000000e0 0.000000000000000e0
0.000000000000000e0 0.000000000000000e0 0.000000000000000e0 0.000000000000000e0
0.000000000000000e0 0.000000000000000e0 0.000000000000000e0 0.000000000000000e0
0.000000000000000e0 0.000000000000000e0 0.000000000000000e0 0.000000000000000e0
0.000000000000000e0 0.000000000000000e0 0.000000000000000e0 0.000000000000000e0
0.000000000000000e0 0.000000000000000e0 0.000000000000000e0 0.000000000000000e0
0.000000000000000e0 0.000000000000000e0 0.000000000000000e0 0.000000000000000e0
0.000000000000000e0 0.000000000000000e0 0.000000000000000e0 0.000000000000000e0
0.000000000000000e0 0.000000000000000e0 0.000000000000000e0 0.000000000000000e0
0.000000000000000e0 0.000000000000000e0 0.000000000000000e0 0.000000000000000e0
0.000000000000000e0 0.000000000000000e0 0.000000000000000e0 0.000000000000000e0
0.000000000000000e0 0.000000000000000e0 0.000000000000000e0 0.000000000000000e0
0.000000000000000e0 0.000000000000000e0 0.000000000000000e0 0.000000000000000e0
0.000000000000000e0 0.000000000000000e0 0.000000000000000e0 0.000000000000000e0
0.000000000000000e0 0.000000000000000e0 0.000000000000000e0 0.000000000000000e0
0.000000000000000e0 0.000000000000000e0 0.000000000000000e0 0.000000000000000e0
0.000000000000000e0 0.000000000000000e0 0.000000000000000e0 0.000000000000000e0
0.000000000000000e0 0.000000000000000e0 0.000000000000000e0 0.000000000000000e0
0.000000000000000e0 0.000000000000000e0 0.000000000000000e0 0.000000000000000e0
0.000000000000000e0 0.000000000000000e0 0.000000000000000e0 0.000000000000000e0
0.000000000000000e0 0.000000000000000e0 0.000000000000000e0 0.000000000000000e0
0.000000000000000e0 0.000000000000000e0 0.000000000000000e0 0.000000000000000e0
0.000000000000000e0 0.000000000000000e0 0.000000000000000e0 0.000000000000000e0
0.000000000000000e0 0.000000000000000e0 0.000000000000000e0 0.000000000000000e0
0.000000000000000e0 0.000000000000000e0 0.000000000000000e0 0.000000000000000e0
0.000000000000000e0 0.000000000000000e0 0.000000000000000e0 0.000000000000000e0
0.000000000000000e0 0.000000000000000e0 0.000000000000000e0 0.000000000000000e0
0.000000000000000e0 0.000000000000000e0 0.000000000000000e0 0.000000000000000e0
0.000000000000000e0 0.000000000000000e0 0.000000000000000e0 0.000000000000000e0
0.000000000000000e0 0.000000000000000e0 0.000000000000000e0 0.000000000000000e0
0.000000000000000e0 0.000000000000000e0 0.000000000000000e0 0.000000000000000e0
0.000000000000000e0
</PP_QIJ.4.4>
</PP_AUGMENTATION>
</PP_NONLOCAL>
<PP_PSWFC>
<PP_CHI.1 index="1" label="2S" l="0" occupation="2.000000000000e0" n="0" pseudo_energy="0.000000000000e0" cutoff_radius="1.000000000000e1" ultrasoft_cutoff_radius="1.100000000000e0">
0.000000000000000e0 9.027018311769998e-6 1.820834089830000e-5 2.754660537900000e-5
3.704449445539999e-5 4.670473668609999e-5 5.653010727039999e-5 6.652342884579999e-5
7.668757229850001e-5 8.702545758860001e-5 9.754005458870001e-5 1.082343839370000e-4
1.191115179050000e-4 1.301745812810000e-4 1.414267522660000e-4 1.528712633880000e-4
1.645114024320000e-4 1.763505133800000e-4 1.883919973760000e-4 2.006393137030000e-4
2.130959807730000e-4 2.257655771410000e-4 2.386517425330000e-4 2.517581788900000e-4
2.650886514320000e-4 2.786469897400000e-4 2.924370888560000e-4 3.064629104040000e-4
3.207284837220000e-4 3.352379070270000e-4 3.499953485870000e-4 3.650050479219999e-4
3.802713170180001e-4 3.957985415710000e-4 4.115911822400001e-4 4.276537759360000e-4
4.439909371180001e-4 4.606073591260000e-4 4.775078155219999e-4 4.946971614660000e-4
5.121803351110001e-4 5.299623590180000e-4 5.480483416020000e-4 5.664434785969999e-4
5.851530545529999e-4 6.041824443470000e-4 6.235371147340000e-4 6.432226259140000e-4
6.632446331290000e-4 6.836088882890000e-4 7.043212416240001e-4 7.253876433620000e-4
7.468141454440000e-4 7.686069032550000e-4 7.907721774010001e-4 8.133163354979999e-4
8.362458540090001e-4 8.595673201009999e-4 8.832874335349999e-4 9.074130085949999e-4
9.319509760450000e-4 9.569083851170001e-4 9.822924055350001e-4 1.008110329580000e-3
1.034369574190000e-3 1.061077683060000e-3 1.088242328850000e-3 1.115871315360000e-3
1.143972579800000e-3 1.172554195030000e-3 1.201624371910000e-3 1.231191461650000e-3
1.261263958210000e-3 1.291850500730000e-3 1.322959876030000e-3 1.354601021120000e-3
1.386783025760000e-3 1.419515135100000e-3 1.452806752310000e-3 1.486667441280000e-3
1.521106929380000e-3 1.556135110270000e-3 1.591762046680000e-3 1.627997973370000e-3
1.664853300050000e-3 1.702338614330000e-3 1.740464684810000e-3 1.779242464170000e-3
1.818683092260000e-3 1.858797899390000e-3 1.899598409500000e-3 1.941096343520000e-3
1.983303622720000e-3 2.026232372120000e-3 2.069894924010000e-3 2.114303821460000e-3
2.159471821930000e-3 2.205411900940000e-3 2.252137255790000e-3 2.299661309350000e-3
2.347997713930000e-3 2.397160355170000e-3 2.447163356050000e-3 2.498021080960000e-3
2.549748139800000e-3 2.602359392160000e-3 2.655869951640000e-3 2.710295190140000e-3
2.765650742320000e-3 2.821952510030000e-3 2.879216666940000e-3 2.937459663130000e-3
2.996698229870000e-3 3.056949384350000e-3 3.118230434650000e-3 3.180558984650000e-3
3.243952939100000e-3 3.308430508780000e-3 3.374010215680000e-3 3.440710898390000e-3
3.508551717450000e-3 3.577552160860000e-3 3.647732049710000e-3 3.719111543820000e-3
3.791711147570000e-3 3.865551715770000e-3 3.940654459630000e-3 4.017040952880000e-3
4.094733137930000e-3 4.173753332210000e-3 4.254124234520001e-3 4.335868931609999e-3
4.419010904749999e-3 4.503574036490000e-3 4.589582617540000e-3 4.677061353690000e-3
4.766035372930000e-3 4.856530232680000e-3 4.948571927080001e-3 5.042186894480000e-3
5.137402025010001e-3 5.234244668300001e-3 5.332742641330000e-3 5.432924236420000e-3
5.534818229320000e-3 5.638453887490000e-3 5.743860978470000e-3 5.851069778440000e-3
5.960111080920000e-3 6.071016205530001e-3 6.183817007060000e-3 6.298545884560001e-3
6.415235790610001e-3 6.533920240830000e-3 6.654633323430000e-3 6.777409709010001e-3
6.902284660490000e-3 7.029294043240000e-3 7.158474335319999e-3 7.289862637989999e-3
7.423496686269999e-3 7.559414859830000e-3 7.697656193930000e-3 7.838260390610001e-3
7.981267830130000e-3 8.126719582420000e-3 8.274657418950000e-3 8.425123824650001e-3
8.578162010040000e-3 8.733815923690001e-3 8.892130264719999e-3 9.053150495630000e-3
9.216922855310001e-3 9.383494372270000e-3 9.552912878110000e-3 9.725227021180000e-3
9.900486280530000e-3 1.007874098000000e-2 1.026004230280000e-2 1.044444230570000e-2
1.063199393450000e-2 1.082275103880000e-2 1.101676838740000e-2 1.121410168400000e-2
1.141480758330000e-2 1.161894370690000e-2 1.182656865980000e-2 1.203774204720000e-2
1.225252449170000e-2 1.247097765030000e-2 1.269316423200000e-2 1.291914801590000e-2
1.314899386940000e-2 1.338276776630000e-2 1.362053680620000e-2 1.386236923300000e-2
1.410833445490000e-2 1.435850306370000e-2 1.461294685530000e-2 1.487173884970000e-2
1.513495331240000e-2 1.540266577480000e-2 1.567495305610000e-2 1.595189328510000e-2
1.623356592230000e-2 1.652005178270000e-2 1.681143305830000e-2 1.710779334180000e-2
1.740921765020000e-2 1.771579244890000e-2 1.802760567630000e-2 1.834474676840000e-2
1.866730668450000e-2 1.899537793280000e-2 1.932905459640000e-2 1.966843236010000e-2
2.001360853750000e-2 2.036468209820000e-2 2.072175369580000e-2 2.108492569660000e-2
2.145430220800000e-2 2.182998910810000e-2 2.221209407540000e-2 2.260072661920000e-2
2.299599811020000e-2 2.339802181190000e-2 2.380691291220000e-2 2.422278855590000e-2
2.464576787760000e-2 2.507597203460000e-2 2.551352424120000e-2 2.595854980300000e-2
2.641117615170000e-2 2.687153288100000e-2 2.733975178210000e-2 2.781596688090000e-2
2.830031447510000e-2 2.879293317170000e-2 2.929396392610000e-2 2.980355008020000e-2
3.032183740280000e-2 3.084897412970000e-2 3.138511100400000e-2 3.193040131850000e-2
3.248500095689999e-2 3.304906843750000e-2 3.362276495560001e-2 3.420625442870000e-2
3.479970354040000e-2 3.540328178620000e-2 3.601716151930000e-2 3.664151799810000e-2
3.727652943260000e-2 3.792237703370000e-2 3.857924506130000e-2 3.924732087400000e-2
3.992679497970000e-2 4.061786108660001e-2 4.132071615450000e-2 4.203556044780000e-2
4.276259758840000e-2 4.350203460980000e-2 4.425408201170001e-2 4.501895381540000e-2
4.579686762030000e-2 4.658804466020000e-2 4.739270986150000e-2 4.821109190170000e-2
4.904342326790000e-2 4.988994031770000e-2 5.075088333890000e-2 5.162649661170001e-2
5.251702847050001e-2 5.342273136690000e-2 5.434386193330000e-2 5.528068104740001e-2
5.623345389740000e-2 5.720245004740000e-2 5.818794350470000e-2 5.919021278610000e-2
6.020954098690000e-2 6.124621584840000e-2 6.230052982830000e-2 6.337278016969999e-2
6.446326897230000e-2 6.557230326310000e-2 6.670019506850000e-2 6.784726148639999e-2
6.901382475919999e-2 7.020021234730001e-2 7.140675700229999e-2 7.263379684229999e-2
7.388167542570000e-2 7.515074182690000e-2 7.644135071129999e-2 7.775386241120000e-2
7.908864300180001e-2 8.044606437710000e-2 8.182650432630000e-2 8.323034661000001e-2
8.465798103650000e-2 8.610980353800000e-2 8.758621624689999e-2 8.908762757129999e-2
9.061445227080000e-2 9.216711153129999e-2 9.374603304000001e-2 9.535165105890000e-2
9.698440649860000e-2 9.864474699030000e-2 1.003331269570000e-1 1.020500076860000e-1
1.037958573920000e-1 1.055711512940000e-1 1.073763716720000e-1 1.092120079370000e-1
1.110785566920000e-1 1.129765217920000e-1 1.149064144000000e-1 1.168687530460000e-1
1.188640636770000e-1 1.208928797050000e-1 1.229557420550000e-1 1.250531992080000e-1
1.271858072360000e-1 1.293541298400000e-1 1.315587383770000e-1 1.338002118830000e-1
1.360791370970000e-1 1.383961084700000e-1 1.407517281720000e-1 1.431466060940000e-1
1.455813598430000e-1 1.480566147220000e-1 1.505730037140000e-1 1.531311674430000e-1
1.557317541410000e-1 1.583754195900000e-1 1.610628270640000e-1 1.637946472550000e-1
1.665715581880000e-1 1.693942451200000e-1 1.722634004300000e-1 1.751797234910000e-1
1.781439205260000e-1 1.811567044500000e-1 1.842187946900000e-1 1.873309169910000e-1
1.904938031960000e-1 1.937081910120000e-1 1.969748237460000e-1 2.002944500210000e-1
2.036678234690000e-1 2.070957023890000e-1 2.105788493870000e-1 2.141180309750000e-1
2.177140171470000e-1 2.213675809170000e-1 2.250794978210000e-1 2.288505453870000e-1
2.326815025540000e-1 2.365731490620000e-1 2.405262647900000e-1 2.445416290520000e-1
2.486200198380000e-1 2.527622130130000e-1 2.569689814530000e-1 2.612410941320000e-1
2.655793151450000e-1 2.699844026700000e-1 2.744571078670000e-1 2.789981737060000e-1
2.836083337280000e-1 2.882883107270000e-1 2.930388153600000e-1 2.978605446750000e-1
3.027541805520000e-1 3.077203880640000e-1 3.127598137420000e-1 3.178730837560000e-1
3.230608019870000e-1 3.283235480140000e-1 3.336618749920000e-1 3.390763074250000e-1
3.445673388390000e-1 3.501354293390000e-1 3.557810030580000e-1 3.615044454940000e-1
3.673061007330000e-1 3.731862685540000e-1 3.791452014190000e-1 3.851831013510000e-1
3.913001166910000e-1 3.974963387420000e-1 4.037717983020000e-1 4.101264620790000e-1
4.165602290040001e-1 4.230729264370000e-1 4.296643062669999e-1 4.363340409210000e-1
4.430817192750000e-1 4.499068424870000e-1 4.568088197420000e-1 4.637869639290000e-1
4.708404872500000e-1 4.779684967710000e-1 4.851699899180000e-1 4.924438499250000e-1
4.997888412500000e-1 5.072036049379999e-1 5.146866539650000e-1 5.222363685310000e-1
5.298509913269999e-1 5.375286227429999e-1 5.452672160230000e-1 5.530645723420000e-1
5.609183357730000e-1 5.688259881260000e-1 5.767848435940000e-1 5.847920431760000e-1
5.928445487889999e-1 6.009391370040000e-1 6.090723923020001e-1 6.172406997480000e-1
6.254402369399999e-1 6.336669651159999e-1 6.419166192220001e-1 6.501846967950000e-1
6.584664454490000e-1 6.667568487750000e-1 6.750506104340000e-1 6.833421362370000e-1
6.916255140160001e-1 6.998944911020000e-1 7.081424492620000e-1 7.163623770070000e-1
7.245468392470000e-1 7.326879443849999e-1 7.407773090660000e-1 7.488060209570000e-1
7.567646001820000e-1 7.646429602310000e-1 7.724303695290001e-1 7.801154151600000e-1
7.876859706529999e-1 7.951291702010001e-1 8.024313921150000e-1 8.095782548590000e-1
8.165546294279999e-1 8.233446723100000e-1 8.299318835240001e-1 8.362991943930000e-1
8.424290895460000e-1 8.483037670500000e-1 8.539053395240000e-1 8.592160771770001e-1
8.642186909839999e-1 8.688966502940000e-1 8.732345238490000e-1 8.772183264150000e-1
8.808358447209999e-1 8.840769064000000e-1 8.869335443680001e-1 8.893999975070001e-1
8.914724781429999e-1 8.931486305060000e-1 8.944266065470000e-1 8.953037032620001e-1
8.957745499040000e-1 8.958289201580000e-1 8.954493972849999e-1 8.946093728630000e-1
8.932722666250001e-1 8.913934786440000e-1 8.889275302189999e-1 8.858439931230000e-1
8.821407433730000e-1 8.778253110330001e-1 8.729064810179999e-1 8.673940440059999e-1
8.612988161639999e-1 8.546326127779999e-1 8.474082195859999e-1 8.396393609800000e-1
8.313406661740000e-1 8.225276325079999e-1 8.132165869940000e-1 8.034246453050001e-1
7.931696692840000e-1 7.824702222250000e-1 7.713455229610000e-1 7.598153980570000e-1
7.479002331040000e-1 7.356209224410000e-1 7.229988182620000e-1 7.100556784849999e-1
6.968136142470000e-1 6.832950364930000e-1 6.695226024230000e-1 6.555191613320001e-1
6.413077005150000e-1 6.269112908630000e-1 6.123530326920000e-1 5.976560015570000e-1
5.828431944550000e-1 5.679374762829999e-1 5.529615268560000e-1 5.379377884510000e-1
5.228884140820000e-1 5.078352166000000e-1 4.927996187270000e-1 4.778026042500000e-1
4.628646703850000e-1 4.480057816880000e-1 4.332453254480000e-1 4.186020690339999e-1
4.040941191040000e-1 3.897388832350000e-1 3.755530338160000e-1 3.615524748420000e-1
3.477523114070000e-1 3.341668225460000e-1 3.208094371720000e-1 3.076927137490000e-1
2.948283233910000e-1 2.822270369500000e-1 2.698987157350000e-1 2.578523063400000e-1
2.460958391380000e-1 2.346364308350000e-1 2.234802905520000e-1 2.126327297570000e-1
2.020981754240000e-1 1.918801866740000e-1 1.819814742260000e-1 1.724039228390000e-1
1.631486160590000e-1 1.542158634000000e-1 1.456052292860000e-1 1.373155638330000e-1
1.293450348660000e-1 1.216911611980000e-1 1.143508466470000e-1 1.073204148090000e-1
1.005956441170000e-1 9.417180324100000e-2 8.804368641830001e-2 8.220564877110000e-2
7.665164130450000e-2 7.137524564030000e-2 6.636970825110000e-2 6.162797426799999e-2
5.714272068310001e-2 5.290638902510000e-2 4.891121737640000e-2 4.514927180320000e-2
4.161247709620000e-2 3.829264687810000e-2 3.518151298690000e-2 3.227075416680000e-2
2.955202397510000e-2 2.701697790670000e-2 2.465729963610000e-2 2.246472634960000e-2
2.043107305720000e-2 1.854825583400000e-2 1.680831387610000e-2 1.520343030520000e-2
1.372595161500000e-2 1.236840568880000e-2 1.112351829770000e-2 9.984228021260000e-3
8.943699521370000e-3 7.995335135690000e-3 7.132784751750000e-3 6.349953955389999e-3
5.641010451190001e-3 5.000388778740001e-3 4.422793357410000e-3 3.903199913990000e-3
3.436855356970000e-3 3.019276178520000e-3 2.646245473600000e-3 2.313808677750000e-3
2.018268131560000e-3 1.756176587000000e-3 1.524329774140000e-3 1.319758150060000e-3
1.139717951590000e-3 9.816816730970000e-4 8.433280876610000e-4 7.225319262830000e-4
6.173533245420000e-4 5.260271401420001e-4 4.469522376480001e-4 3.786808292390000e-4
3.199079520030001e-4 2.694611539079999e-4 2.262904518770000e-4 1.894586166830000e-4
1.581318307850000e-4 1.315707568420000e-4 1.091220465550000e-4 9.021031185849999e-5
7.433057328159999e-5 6.104119371059999e-5 4.995729972009999e-5 4.074468723870000e-5
3.311420352980000e-5 2.681659332220000e-5 2.163779341860000e-5 1.739465720760000e-5
1.393108819620000e-5 1.111455992630000e-5 8.832998393039999e-6 6.992002315350000e-6
5.512376258570000e-6 4.327951632040000e-6 3.383670883560000e-6 2.633910605060001e-6
2.041021908290000e-6 1.574063209060000e-6 1.207706110460000e-6 9.212940385149999e-7
6.980347024359999e-7 5.243085536860002e-7 3.890762941370001e-7 2.833690845620001e-7
1.998452840110000e-7 1.323971014990000e-7 7.578916097719999e-8 2.530821565769999e-8
0.000000000000000e0 0.000000000000000e0 0.000000000000000e0 0.000000000000000e0
0.000000000000000e0 0.000000000000000e0 0.000000000000000e0 0.000000000000000e0
0.000000000000000e0 0.000000000000000e0 0.000000000000000e0 0.000000000000000e0
0.000000000000000e0 0.000000000000000e0 0.000000000000000e0 0.000000000000000e0
0.000000000000000e0 0.000000000000000e0 0.000000000000000e0 0.000000000000000e0
0.000000000000000e0 0.000000000000000e0 0.000000000000000e0 0.000000000000000e0
0.000000000000000e0 0.000000000000000e0 0.000000000000000e0 0.000000000000000e0
0.000000000000000e0 0.000000000000000e0 0.000000000000000e0 0.000000000000000e0
0.000000000000000e0 0.000000000000000e0 0.000000000000000e0 0.000000000000000e0
0.000000000000000e0 0.000000000000000e0 0.000000000000000e0 0.000000000000000e0
0.000000000000000e0 0.000000000000000e0 0.000000000000000e0 0.000000000000000e0
0.000000000000000e0 0.000000000000000e0 0.000000000000000e0 0.000000000000000e0
0.000000000000000e0 0.000000000000000e0 0.000000000000000e0 0.000000000000000e0
0.000000000000000e0 0.000000000000000e0 0.000000000000000e0 0.000000000000000e0
0.000000000000000e0 0.000000000000000e0 0.000000000000000e0 0.000000000000000e0
0.000000000000000e0 0.000000000000000e0 0.000000000000000e0 0.000000000000000e0
0.000000000000000e0 0.000000000000000e0 0.000000000000000e0 0.000000000000000e0
0.000000000000000e0 0.000000000000000e0 0.000000000000000e0 0.000000000000000e0
0.000000000000000e0 0.000000000000000e0 0.000000000000000e0 0.000000000000000e0
0.000000000000000e0 0.000000000000000e0 0.000000000000000e0 0.000000000000000e0
0.000000000000000e0 0.000000000000000e0 0.000000000000000e0 0.000000000000000e0
0.000000000000000e0 0.000000000000000e0 0.000000000000000e0 0.000000000000000e0
0.000000000000000e0 0.000000000000000e0 0.000000000000000e0 0.000000000000000e0
0.000000000000000e0 0.000000000000000e0 0.000000000000000e0 0.000000000000000e0
0.000000000000000e0
</PP_CHI.1>
<PP_CHI.2 index="2" label="2P" l="1" occupation="3.000000000000e0" n="0" pseudo_energy="0.000000000000e0" cutoff_radius="1.000000000000e1" ultrasoft_cutoff_radius="1.100000000000e0">
0.000000000000000e0 7.272641881069998e-11 2.958995517450000e-10 6.772355243009997e-10
1.224759735710000e-9 1.946818261380000e-9 2.852089661070000e-9 3.949597207140000e-9
5.248721547440000e-9 6.759213818080001e-9 8.491209221810001e-9 1.045524108850000e-8
1.266225543390000e-8 1.512362603560000e-8 1.785117004170000e-8 2.085716413430000e-8
2.415436126319999e-8 2.775600797370000e-8 3.167586234570001e-8 3.592821256829999e-8
4.052789617029999e-8 4.549031992970000e-8 5.083148048689999e-8 5.656798568529999e-8
6.271707666430002e-8 6.929665073239999e-8 7.632528504550002e-8 8.382226112089997e-8
9.180759021390001e-8 1.003020395880000e-7 1.093271597120000e-7 1.189053124090000e-7
1.290597000020000e-7 1.398143954780000e-7 1.511943737220000e-7 1.632255438320000e-7
1.759347825890000e-7 1.893499690880000e-7 2.035000205900000e-7 2.184149296320000e-7
2.341258024390000e-7 2.506648986830000e-7 2.680656726340000e-7 2.863628157600001e-7
3.055923008090000e-7 3.257914274480000e-7 3.469988694880000e-7 3.692547237750000e-7
3.926005607800001e-7 4.170794769699999e-7 4.427361490030001e-7 4.696168898250000e-7
4.977697067250000e-7 5.272443614210001e-7 5.580924322460000e-7 5.903673785040001e-7
6.241246070809999e-7 6.594215413760001e-7 6.963176926450000e-7 7.348747338260000e-7
7.751565759540001e-7 8.172294472340001e-7 8.611619748720001e-7 9.070252697679999e-7
9.548930141540000e-7 1.004841552290000e-6 1.056949984340000e-6 1.111300263480000e-6
1.167977296420000e-6 1.227069047450000e-6 1.288666646030000e-6 1.352864498230000e-6
1.419760401980000e-6 1.489455666350000e-6 1.562055235000000e-6 1.637667813890000e-6
1.716406003470000e-6 1.798386435470000e-6 1.883729914410000e-6 1.972561564080000e-6
2.065010979070000e-6 2.161212381600000e-6 2.261304783810000e-6 2.365432155630000e-6
2.473743598590000e-6 2.586393525550000e-6 2.703541846780000e-6 2.825354162420000e-6
2.952001961710000e-6 3.083662829050000e-6 3.220520657299999e-6 3.362765868400000e-6
3.510595641750000e-6 3.664214150430000e-6 3.823832805650000e-6 3.989670509740000e-6
4.161953917790001e-6 4.340917708510000e-6 4.526804864370001e-6 4.719866961590001e-6
4.920364469990001e-6 5.128567063479999e-6 5.344753941130000e-6 5.569214159420000e-6
5.802246976079999e-6 6.044162205790000e-6 6.295280588160002e-6 6.555934168589999e-6
6.826466692220001e-6 7.107234011559999e-6 7.398604508300001e-6 7.700959529640000e-6
8.014693839800000e-6 8.340216087169999e-6 8.677949287590000e-6 9.028331324400000e-6
9.391815465830000e-6 9.768870900249999e-6 1.015998329000000e-5 1.056565534430000e-5
1.098640741230000e-5 1.142277809590000e-5 1.187532488510000e-5 1.234462481370000e-5
1.283127513890000e-5 1.333589404430000e-5 1.385912136660000e-5 1.440161934760000e-5
1.496407341300000e-5 1.554719297720000e-5 1.615171227620000e-5 1.677839122950000e-5
1.742801633190000e-5 1.810140157530000e-5 1.879938940360000e-5 1.952285170000000e-5
2.027269080770000e-5 2.104984058740000e-5 2.185526751020000e-5 2.268997178880000e-5
2.355498854700000e-5 2.445138903120000e-5 2.538028186200000e-5 2.634281432990000e-5
2.734017373610000e-5 2.837358877850000e-5 2.944433098690000e-5 3.055371620670000e-5
3.170310613420000e-5 3.289390990510000e-5 3.412758573780001e-5 3.540564263290000e-5
3.672964213210000e-5 3.810120013720000e-5 3.952198879260001e-5 4.099373843180000e-5
4.251823959170001e-5 4.409734509650001e-5 4.573297221300000e-5 4.742710488040000e-5
4.918179601759999e-5 5.099916990889999e-5 5.288142467290000e-5 5.483083481660000e-5
5.684975387660000e-5 5.894061715230000e-5 6.110594453290000e-5 6.334834342170000e-5
6.567051176180000e-5 6.807524116490001e-5 7.056542014920000e-5 7.314403748789999e-5
7.581418567329999e-5 7.857906450050001e-5 8.144198477369999e-5 8.440637214140001e-5
8.747577106210001e-5 9.065384890750000e-5 9.394440020659999e-5 9.735135103590000e-5
1.008787635610000e-4 1.045308407320000e-4 1.083119311460000e-4 1.122265340700000e-4
1.162793046390000e-4 1.204750592390000e-4 1.248187810610000e-4 1.293156258610000e-4
1.339709279100000e-4 1.387902061450000e-4 1.437791705410000e-4 1.489437286940000e-4
1.542899926310000e-4 1.598242858600000e-4 1.655531506500000e-4 1.714833555720000e-4
1.776219032960000e-4 1.839760386480000e-4 1.905532569530000e-4 1.973613126580000e-4
2.044082282520000e-4 2.117023034910000e-4 2.192521249390000e-4 2.270665758390000e-4
2.351548463130000e-4 2.435264439200000e-4 2.521912045700000e-4 2.611593038140000e-4
2.704412685160000e-4 2.800479889250000e-4 2.899907311640000e-4 3.002811501360000e-4
3.109313028790000e-4 3.219536623730001e-4 3.333611318130000e-4 3.451670593779999e-4
3.573852534930000e-4 3.700299986200000e-4 3.831160715760000e-4 3.966587584150000e-4
4.106738718790000e-4 4.251777694410000e-4 4.401873719640000e-4 4.557201829910000e-4
4.717943086869999e-4 4.884284784640000e-4 5.056420662940000e-4 5.234551127490001e-4
5.418883477940000e-4 5.609632143290001e-4 5.807018925530000e-4 6.011273251260000e-4
6.222632431939999e-4 6.441341932880000e-4 6.667655651230000e-4 6.901836203380000e-4
7.144155221999999e-4 7.394893663030000e-4 7.654342122980000e-4 7.922801166869999e-4
8.200581667120000e-4 8.488005153779998e-4 8.785404176500000e-4 9.093122678480000e-4
9.411516382930001e-4 9.740953192430000e-4 1.008181360150000e-3 1.043449112280000e-3
1.079939272770000e-3 1.117693930110000e-3 1.156756611150000e-3 1.197172329650000e-3
1.238987636450000e-3 1.282250671220000e-3 1.327011216020000e-3 1.373320750530000e-3
1.421232509090000e-3 1.470801539660000e-3 1.522084764630000e-3 1.575141043670000e-3
1.630031238590000e-3 1.686818280280000e-3 1.745567237850000e-3 1.806345389970000e-3
1.869222298530000e-3 1.934269884650000e-3 2.001562507090000e-3 2.071177043220000e-3
2.143192972500000e-3 2.217692462670000e-3 2.294760458640000e-3 2.374484774150000e-3
2.456956186340000e-3 2.542268533290000e-3 2.630518814570000e-3 2.721807294950000e-3
2.816237611280000e-3 2.913916882710000e-3 3.014955824240000e-3 3.119468863810000e-3
3.227574262889999e-3 3.339394240730000e-3 3.455055102420000e-3 3.574687370720000e-3
3.698425921839999e-3 3.826410125269999e-3 3.958783987710000e-3 4.095696301259999e-3
4.237300795870000e-3 4.383756296270000e-3 4.535226883360000e-3 4.691882060259999e-3
4.853896923040001e-3 5.021452336249999e-3 5.194735113379999e-3 5.373938202320000e-3
5.559260875869999e-3 5.750908927460000e-3 5.949094872210000e-3 6.154038153230000e-3
6.365965353510000e-3 6.585110413230000e-3 6.811714852790001e-3 7.046028001500000e-3
7.288307231999999e-3 7.538818200610001e-3 7.797835093540000e-3 8.065640879069999e-3
8.342527565790000e-3 8.628796466870002e-3 8.924758470520000e-3 9.230734316500000e-3
9.547054878929998e-3 9.874061455240001e-3 1.021210606130000e-2 1.056155173300000e-2
1.092277283340000e-2 1.129615536730000e-2 1.168209730040000e-2 1.208100888600000e-2
1.249331299670000e-2 1.291944546310000e-2 1.335985541760000e-2 1.381500564440000e-2
1.428537293550000e-2 1.477144845160000e-2 1.527373808970000e-2 1.579276285470000e-2
1.632905923720000e-2 1.688317959630000e-2 1.745569254630000e-2 1.804718334980000e-2
1.865825431330000e-2 1.928952518900000e-2 1.994163357920000e-2 2.061523534520000e-2
2.131100502000000e-2 2.202963622390000e-2 2.277184208340000e-2 2.353835565340000e-2
2.432993034210000e-2 2.514734033740000e-2 2.599138103750000e-2 2.686286948230000e-2
2.776264478730000e-2 2.869156857940000e-2 2.965052543550000e-2 3.064042332180000e-2
3.166219403620000e-2 3.271679365270000e-2 3.380520296800000e-2 3.492842795190000e-2
3.608750019960000e-2 3.728347738980000e-2 3.851744374630000e-2 3.979051050540000e-2
4.110381639100000e-2 4.245852809700001e-2 4.385584077960000e-2 4.529697856160000e-2
4.678319504979999e-2 4.831577386850000e-2 4.989602921229999e-2 5.152530641960000e-2
5.320498257200001e-2 5.493646712249999e-2 5.672120255689999e-2 5.856066509220001e-2
6.045636541900000e-2 6.240984949080000e-2 6.442269936830001e-2 6.649653412400001e-2
6.863301081310000e-2 7.083382552040001e-2 7.310071448730000e-2 7.543545532890001e-2
7.783986834919999e-2 8.031581796080001e-2 8.286521421890001e-2 8.549001447649999e-2
8.819222516820000e-2 9.097390373070001e-2 9.383716066420000e-2 9.678416174080001e-2
9.981713036320000e-2 1.029383500740000e-1 1.061501672130000e-1 1.094549937260000e-1
1.128553101000000e-1 1.163536684320000e-1 1.199526955940000e-1 1.236550964900000e-1
1.274636573470000e-1 1.313812490230000e-1 1.354108302620000e-1 1.395554508480000e-1
1.438182545670000e-1 1.482024819010000e-1 1.527114723320000e-1 1.573486661400000e-1
1.621176055450000e-1 1.670219350270000e-1 1.720654006210000e-1 1.772518479800000e-1
1.825852189570000e-1 1.880695464200000e-1 1.937089470030000e-1 1.995076114540000e-1
2.054697922070000e-1 2.115997877820000e-1 2.179019235880000e-1 2.243805286650000e-1
2.310399079140000e-1 2.378843092980000e-1 2.449178855490000e-1 2.521446498780000e-1
2.595684252240000e-1 2.671927866200000e-1 2.750209963040000e-1 2.830559312950000e-1
2.913000032660000e-1 2.997550707110000e-1 3.084223435790000e-1 3.173022808090000e-1
3.263944814690000e-1 3.356975705860000e-1 3.452090811240000e-1 3.549253340810000e-1
3.648413191900000e-1 3.749505793250000e-1 3.852451023680000e-1 3.957152250190000e-1
4.063495537460000e-1 4.171349088470000e-1 4.280562983040000e-1 4.390969287770000e-1
4.502382615880000e-1 4.614601219040000e-1 4.727408693210000e-1 4.840576377000000e-1
4.953866512070000e-1 5.067036218870000e-1 5.179842317120000e-1 5.292046985300000e-1
5.403424206820000e-1 5.513766889629999e-1 5.622894469829999e-1 5.730660716760000e-1
5.836961347839999e-1 5.941740936430000e-1 6.044998459000000e-1 6.146790685020001e-1
6.247232473690000e-1 6.346492921490000e-1 6.444786223860000e-1 6.542356102959999e-1
6.639452747790000e-1 6.736301462449999e-1 6.833062678979999e-1 6.929783730480001e-1
7.026343868750001e-1 7.122395515350000e-1 7.217306703639999e-1 7.310112104430000e-1
7.399482843850000e-1 7.483728279089999e-1 7.560845499410000e-1 7.628633659470000e-1
7.684888782500000e-1 7.727687870150000e-1 7.755755032390001e-1 7.768870719200000e-1
7.768228819920000e-1 7.756551185440000e-1 7.737614617280000e-1 7.714628811270000e-1
7.688451511849999e-1 7.659110585110001e-1 7.626619770320000e-1 7.591001436450000e-1
7.552282173090000e-1 7.510492728690000e-1 7.465667944570001e-1 7.417846677010001e-1
7.367071716390000e-1 7.313389695320000e-1 7.256850994880000e-1 7.197509640990000e-1
7.135423199820000e-1 7.070652664510000e-1 7.003262341710000e-1 6.933319730580000e-1
6.860895402270000e-1 6.786062872840000e-1 6.708898477130000e-1 6.629481236900000e-1
6.547892730100000e-1 6.464216955139999e-1 6.378540195950000e-1 6.290950882660001e-1
6.201539452520000e-1 6.110398206539999e-1 6.017621165610000e-1 5.923303922310001e-1
5.827543491029999e-1 5.730438153560000e-1 5.632087301749999e-1 5.532591275380000e-1
5.432051195640000e-1 5.330568793810000e-1 5.228246234490000e-1 5.125185934010000e-1
5.021490372890000e-1 4.917261904260000e-1 4.812602556280000e-1 4.707613832090000e-1
4.602396504820000e-1 4.497050412410000e-1 4.391674249550000e-1 4.286365362640000e-1
4.181219544830000e-1 4.076330837960000e-1 3.971791338090000e-1 3.867691012190000e-1
3.764117522210000e-1 3.661156064350000e-1 3.558889219290000e-1 3.457396820900000e-1
3.356755838830000e-1 3.257040281880000e-1 3.158321116800000e-1 3.060666209040000e-1
2.964140279030000e-1 2.868804880010000e-1 2.774718390340000e-1 2.681936025320000e-1
2.590509861260000e-1 2.500488875880000e-1 2.411918997700000e-1 2.324843167690000e-1
2.239301405960000e-1 2.155330886260000e-1 2.072966011220000e-1 1.992238490880000e-1
1.913177417840000e-1 1.835809341430000e-1 1.760158335020000e-1 1.686246058680000e-1
1.614091812400000e-1 1.543712582230000e-1 1.475123075410000e-1 1.408335747330000e-1
1.343360817450000e-1 1.280206277240000e-1 1.218877888670000e-1 1.159379176290000e-1
1.101711412610000e-1 1.045873600100000e-1 9.918624500229999e-2 9.396723617719999e-2
8.892954031430001e-2 8.407212951000000e-2 7.939374017090000e-2 7.489287282100000e-2
7.056779278770000e-2 6.641653199780000e-2 6.243689191490000e-2 5.862644777500000e-2
5.498255410760001e-2 5.150235162090000e-2 4.818277539049999e-2 4.502056436160000e-2
4.201227205890000e-2 3.915427845640000e-2 3.644280286930001e-2 3.387391777570000e-2
3.144356341080000e-2 2.914756301360000e-2 2.698163856060000e-2 2.494142685550000e-2
2.302249581100000e-2 2.122036079190000e-2 1.953050086910000e-2 1.794837486040000e-2
1.646943702880000e-2 1.508915232870000e-2 1.380301109270000e-2 1.260654307000000e-2
1.149533073300000e-2 1.046502178530000e-2 9.511340810930001e-3 8.630100020819999e-3
7.817209060030001e-3 7.068683852019999e-3 6.380654464809999e-3 5.749371995280001e-3
5.171214474859999e-3 4.642691809660000e-3 4.160449774650000e-3 3.721273088880000e-3
3.322087604560000e-3 2.959961648160000e-3 2.632106556530000e-3 2.335876454690000e-3
2.068767325240000e-3 1.828415421860000e-3 1.612595081180000e-3 1.419215988670000e-3
1.246319954440000e-3 1.092077255560000e-3 9.547826003050000e-4 8.328507695450000e-4
7.248119885200000e-4 6.293070809080000e-4 5.450824547820000e-4 4.709849677190000e-4
4.059567156300000e-4 3.490297870260000e-4 2.993210174050000e-4 2.560267560450000e-4
2.184178143660000e-4 1.858343969740000e-4 1.576811919760000e-4 1.334226150590000e-4
1.125782214730000e-4 9.471830156149998e-5 7.945967252070001e-5 6.646167618510001e-5
5.542238993290001e-5 4.607505524530001e-5 3.818472609470000e-5 3.154513715540000e-5
2.597578986319999e-5 2.131925258110000e-5 1.743866956990000e-5 1.421547210410000e-5
1.154728391850000e-5 9.346012193930001e-6 7.536114495140001e-6 6.053031426699999e-6
4.841774261750000e-6 3.855656386730000e-6 3.055157061860001e-6 2.406905672890000e-6
1.882774285420000e-6 1.459065828540000e-6 1.115784523170000e-6 8.359740829259998e-7
6.051075445650000e-7 4.105100359870001e-7 2.407919367579999e-7 8.526411169870002e-8
0.000000000000000e0 0.000000000000000e0 0.000000000000000e0 0.000000000000000e0
0.000000000000000e0 0.000000000000000e0 0.000000000000000e0 0.000000000000000e0
0.000000000000000e0 0.000000000000000e0 0.000000000000000e0 0.000000000000000e0
0.000000000000000e0 0.000000000000000e0 0.000000000000000e0 0.000000000000000e0
0.000000000000000e0 0.000000000000000e0 0.000000000000000e0 0.000000000000000e0
0.000000000000000e0 0.000000000000000e0 0.000000000000000e0 0.000000000000000e0
0.000000000000000e0 0.000000000000000e0 0.000000000000000e0 0.000000000000000e0
0.000000000000000e0 0.000000000000000e0 0.000000000000000e0 0.000000000000000e0
0.000000000000000e0 0.000000000000000e0 0.000000000000000e0 0.000000000000000e0
0.000000000000000e0 0.000000000000000e0 0.000000000000000e0 0.000000000000000e0
0.000000000000000e0 0.000000000000000e0 0.000000000000000e0 0.000000000000000e0
0.000000000000000e0 0.000000000000000e0 0.000000000000000e0 0.000000000000000e0
0.000000000000000e0 0.000000000000000e0 0.000000000000000e0 0.000000000000000e0
0.000000000000000e0 0.000000000000000e0 0.000000000000000e0 0.000000000000000e0
0.000000000000000e0 0.000000000000000e0 0.000000000000000e0 0.000000000000000e0
0.000000000000000e0 0.000000000000000e0 0.000000000000000e0 0.000000000000000e0
0.000000000000000e0 0.000000000000000e0 0.000000000000000e0 0.000000000000000e0
0.000000000000000e0 0.000000000000000e0 0.000000000000000e0 0.000000000000000e0
0.000000000000000e0 0.000000000000000e0 0.000000000000000e0 0.000000000000000e0
0.000000000000000e0
</PP_CHI.2>
</PP_PSWFC>
<PP_RHOATOM>
0.000000000000000e0 1.437998805980000e-10 5.850737726900000e-10 1.339078553840000e-9
2.421682621280000e-9 3.849388437910000e-9 5.639355880650000e-9 7.809426419170000e-9
1.037814815430000e-8 1.336480174570000e-8 1.678942726099999e-8 2.067285197670000e-8
2.503671916650000e-8 2.990351790970000e-8 3.529661395600000e-8 4.124028168400001e-8
4.775973719090000e-8 5.488117255320001e-8 6.263179129960000e-8 7.103984513830000e-8
8.013467198150000e-8 8.994673531419998e-8 1.005076649530000e-7 1.118502992410000e-7
1.240087287400000e-7 1.370183414490000e-7 1.509158696340000e-7 1.657394382930000e-7
1.815286153380000e-7 1.983244635430001e-7 2.161695943160000e-7 2.351082233670000e-7
2.551862283340000e-7 2.764512084380000e-7 2.989525462260000e-7 3.227414714940000e-7
3.478711274530000e-7 3.743966392150000e-7 4.023751846859999e-7 4.318660679479999e-7
4.629307952160000e-7 4.956331534569999e-7 5.300392917670001e-7 5.662178056010001e-7
6.042398239570001e-7 6.441790996120000e-7 6.861121025170000e-7 7.301181164699999e-7
7.762793391620000e-7 8.246809857400001e-7 8.754113959770001e-7 9.285621452019999e-7
9.842281591089998e-7 1.042507832580000e-6 1.103503152640000e-6 1.167319825780000e-6
1.234067409600000e-6 1.303859449220000e-6 1.376813618280000e-6 1.453051865010000e-6
1.532700563310001e-6 1.615890669130000e-6 1.702757882310000e-6 1.793442814100000e-6
1.888091160420000e-6 1.986853881300000e-6 2.089887386460000e-6 2.197353727450000e-6
2.309420796420000e-6 2.426262531850000e-6 2.548059131450000e-6 2.674997272480000e-6
2.807270339710000e-6 2.945078661360000e-6 3.088629753260000e-6 3.238138571470000e-6
3.393827773739999e-6 3.555927990000000e-6 3.724678102400000e-6 3.900325534909999e-6
4.083126553170001e-6 4.273346574659999e-6 4.471260489690000e-6 4.677152993590000e-6
4.891318930380001e-6 5.114063648450000e-6 5.345703368589999e-6 5.586565564790000e-6
5.836989358320000e-6 6.097325925460000e-6 6.367938919409999e-6 6.649204906910001e-6
6.941513819940002e-6 7.245269423180001e-6 7.560889797720000e-6 7.888807841470000e-6
8.229471787070000e-6 8.583345737720000e-6 8.950910221629998e-6 9.332662765680000e-6
9.729118489109998e-6 1.014081071770000e-5 1.056829161920000e-5 1.101213286120000e-5
1.147292629140000e-5 1.195128464150000e-5 1.244784225580000e-5 1.296325584520000e-5
1.349820526670000e-5 1.405339433060000e-5 1.462955163510000e-5 1.522743143100000e-5
1.584781451460000e-5 1.649150915340000e-5 1.715935204260000e-5 1.785220929550000e-5
1.857097746800000e-5 1.931658461850000e-5 2.008999140480000e-5 2.089219221910001e-5
2.172421636190000e-5 2.258712925720000e-5 2.348203370919999e-5 2.441007120350000e-5
2.537242325220000e-5 2.637031278690000e-5 2.740500559890000e-5 2.847781183009999e-5
2.959008751540000e-5 3.074323617820000e-5 3.193871048200000e-5 3.317801393830000e-5
3.446270267450000e-5 3.579438726320000e-5 3.717473461360000e-5 3.860546993039999e-5
4.008837873939999e-5 4.162530898319999e-5 4.321817319069999e-5 4.486895072069999e-5
4.657969008390000e-5 4.835251134509999e-5 5.018960860950000e-5 5.209325259379999e-5
5.406579328820000e-5 5.610966270930000e-5 5.822737774960000e-5 6.042154312469999e-5
6.269485442430000e-5 6.505010126749999e-5 6.749017056870001e-5 7.001804991639999e-5
7.263683106929999e-5 7.534971357379999e-5 7.816000850720000e-5 8.107114235090000e-5
8.408666099750000e-5 8.721023389820001e-5 9.044565835320000e-5 9.379686395160000e-5
9.726791716559999e-5 1.008630261050000e-4 1.045865454330000e-4 1.084429814630000e-4
1.124369974170000e-4 1.165734188820000e-4 1.208572394480000e-4 1.252936265430000e-4
1.298879274710000e-4 1.346456756640000e-4 1.395725971470000e-4 1.446746172290000e-4
1.499578674310000e-4 1.554286926450000e-4 1.610936585600000e-4 1.669595593270000e-4
1.730334255040000e-4 1.793225322780000e-4 1.858344079640000e-4 1.925768428140000e-4
1.995578981190000e-4 2.067859156450000e-4 2.142695273810000e-4 2.220176656460000e-4
2.300395735290000e-4 2.383448157170000e-4 2.469432896810000e-4 2.558452372640000e-4
2.650612566770000e-4 2.746023149060000e-4 2.844797605640000e-4 2.947053371860000e-4
3.052911969930000e-4 3.162499151390000e-4 3.275945044620000e-4 3.393384307460001e-4
3.514956285260000e-4 3.640805174440001e-4 3.771080191870000e-4 3.905935750140000e-4
4.045531639060000e-4 4.190033213570000e-4 4.339611588239999e-4 4.494443838640000e-4
4.654713209880001e-4 4.820609332480000e-4 4.992328445910000e-4 5.170073630009999e-4
5.354055044650002e-4 5.544490177920000e-4 5.741604103049999e-4 5.945629744580001e-4
6.156808153889999e-4 6.375388794650000e-4 6.601629838340001e-4 6.835798470440000e-4
7.078171207480001e-4 7.329034225420000e-4 7.588683699880000e-4 7.857426158510000e-4
8.135578845980000e-4 8.423470102210000e-4 8.721439754049999e-4 9.029839521250000e-4
9.349033436939999e-4 9.679398283400001e-4 1.002132404360000e-3 1.037521436890000e-3
1.074148706440000e-3 1.112057459080000e-3 1.151292458560000e-3 1.191900040280000e-3
1.233928167280000e-3 1.277426488150000e-3 1.322446397280000e-3 1.369041097090000e-3
1.417265662730000e-3 1.467177109100000e-3 1.518834460300000e-3 1.572298821730000e-3
1.627633454840000e-3 1.684903854650000e-3 1.744177830140000e-3 1.805525587710000e-3
1.869019817690000e-3 1.934735784140000e-3 2.002751418019999e-3 2.073147413900000e-3
2.146007330250000e-3 2.221417693620000e-3 2.299468106740000e-3 2.380251360750000e-3
2.463863551680000e-3 2.550404201470000e-3 2.639976383570000e-3 2.732686853430000e-3
2.828646184040000e-3 2.927968906620000e-3 3.030773656980000e-3 3.137183327390000e-3
3.247325224540000e-3 3.361331233600000e-3 3.479337988850000e-3 3.601487050940000e-3
3.727925091300000e-3 3.858804083760000e-3 3.994281503980000e-3 4.134520536720000e-3
4.279690291560001e-3 4.429966027270000e-3 4.585529385290000e-3 4.746568632730000e-3
4.913278915230000e-3 5.085862520240001e-3 5.264529151110001e-3 5.449496212480000e-3
5.640989107519999e-3 5.839241547529999e-3 6.044495874460000e-3 6.257003396970000e-3
6.477024740660000e-3 6.704830213020001e-3 6.940700183920000e-3 7.184925482340000e-3
7.437807809989999e-3 7.699660172709999e-3 7.970807330460000e-3 8.251586266800002e-3
8.542346678720001e-3 8.843451487839999e-3 9.155277373960001e-3 9.478215332030000e-3
9.812671253760000e-3 1.015906653480000e-2 1.051783870910000e-2 1.088944211120000e-2
1.127434856850000e-2 1.167304812450000e-2 1.208604979410000e-2 1.251388235390000e-2
1.295709516770000e-2 1.341625904920000e-2 1.389196716490000e-2 1.438483597780000e-2
1.489550623370000e-2 1.542464399420000e-2 1.597294171590000e-2 1.654111938030000e-2
1.712992567540000e-2 1.774013923230000e-2 1.837256991940000e-2 1.902806019620000e-2
1.970748653070000e-2 2.041176088230000e-2 2.114183225470000e-2 2.189868832050000e-2
2.268335712180000e-2 2.349690885100000e-2 2.434045771410000e-2 2.521516388110000e-2
2.612223552810000e-2 2.706293097390000e-2 2.803856091710000e-2 2.905049077620000e-2
3.010014314020000e-2 3.118900033090000e-2 3.231860708520000e-2 3.349057336110000e-2
3.470657727170000e-2 3.596836815550000e-2 3.727776978510000e-2 3.863668372359999e-2
4.004709283130000e-2 4.151106493150000e-2 4.303075663970000e-2 4.460841736360000e-2
4.624639347930000e-2 4.794713269130000e-2 4.971318858140000e-2 5.154722535479999e-2
5.345202278760000e-2 5.543048138540000e-2 5.748562775600000e-2 5.962062020539999e-2
6.183875456259999e-2 6.414347023870000e-2 6.653835652690000e-2 6.902715915019999e-2
7.161378705990000e-2 7.430231949330000e-2 7.709701329240000e-2 8.000231049029999e-2
8.302284616849999e-2 8.616345658809999e-2 8.942918759910000e-2 9.282530332800000e-2
9.635729514789999e-2 1.000308909300000e-1 1.038520645750000e-1 1.078270458300000e-1
1.119623303830000e-1 1.162646902280000e-1 1.207411843140000e-1 1.253991694570000e-1
1.302463115100000e-1 1.352905968000000e-1 1.405403438060000e-1 1.460042150810000e-1
1.516912294010000e-1 1.576107741420000e-1 1.637726178600000e-1 1.701869230790000e-1
1.768642592530000e-1 1.838156159180000e-1 1.910524159970000e-1 1.985865292580000e-1
2.064302859170000e-1 2.145964903590000e-1 2.230984349870000e-1 2.319499141690000e-1
2.411652382910000e-1 2.507592478930000e-1 2.607473278940000e-1 2.711454218870000e-1
2.819700465050000e-1 2.932383058450000e-1 3.049679059410000e-1 3.171771692710000e-1
3.298850492840000e-1 3.431111449040000e-1 3.568757149930000e-1 3.711996926910000e-1
3.861046995660000e-1 4.016130594710000e-1 4.177478119400000e-1 4.345327249480000e-1
4.519923067590000e-1 4.701518165470000e-1 4.890372733470000e-1 5.086754628040000e-1
5.290939410540000e-1 5.503210348770001e-1 5.723858371180000e-1 5.953181960960000e-1
6.191486975160000e-1 6.439086370410000e-1 6.696299813980000e-1 6.963453154610000e-1
7.240877723780001e-1 7.528909433150000e-1 7.827887629040000e-1 8.138153659829999e-1
8.460049106540000e-1 8.793913621940000e-1 9.140082318430000e-1 9.498882640840000e-1
9.870630657140001e-1 1.025562669880000e0 1.065415028350000e0 1.106645425630000e0
1.149275809600000e0 1.193324034420000e0 1.238803013750000e0 1.285719785110000e0
1.334074490010000e0 1.383859279530000e0 1.435057161110000e0 1.487640810230000e0
1.541571379300000e0 1.596797347100000e0 1.653253463490000e0 1.710859857280000e0
1.769521388070000e0 1.829127335890000e0 1.889551533230000e0 1.950653051510000e0
2.012277555330000e0 2.074259429990000e0 2.136424766430000e0 2.198595249220000e0
2.260592930840000e0 2.322245784820000e0 2.383393805450000e0 2.443895259690000e0
2.503632496540000e0 2.562516488610000e0 2.620489035800000e0 2.677521340750000e0
2.733607533280000e0 2.788751790140000e0 2.842948142950000e0 2.896153173900000e0
2.948253991510000e0 2.999037803870000e0 3.048176019200000e0 3.095246506790000e0
3.139835499510000e0 3.181694150080000e0 3.220680300900000e0 3.256662140620000e0
3.289516086460000e0 3.319127483160000e0 3.345391265610000e0 3.368212577390000e0
3.387507341640000e0 3.403202775270000e0 3.415237841240000e0 3.423563626220000e0
3.428143635530000e0 3.428953989070000e0 3.425983509020000e0 3.419233666430000e0
3.408718430570000e0 3.394464064910000e0 3.376508999200000e0 3.354904068700000e0
3.329713159430000e0 3.301013779910000e0 3.268891300940000e0 3.233443917740000e0
3.194780260710000e0 3.153018815360000e0 3.108287296170000e0 3.060721972220000e0
3.010466956530000e0 2.957673457730000e0 2.902499006140000e0 2.845106653270000e0
2.785664157100000e0 2.724343152150000e0 2.661318316560000e0 2.596766535440000e0
2.530866072020000e0 2.463795745980000e0 2.395734129660000e0 2.326858761620000e0
2.257345387020000e0 2.187367224430000e0 2.117094267060000e0 2.046692618280000e0
1.976323867670000e0 1.906144507730000e0 1.836305395780000e0 1.766951261240000e0
1.698220261460000e0 1.630243585960000e0 1.563145111130000e0 1.497041105070000e0
1.432039983330000e0 1.368242115240000e0 1.305739680340000e0 1.244616574660000e0
1.184948365190000e0 1.126802292350000e0 1.070237317820000e0 1.015304217360000e0
9.620457153720000e-1 9.104966604640000e-1 8.606842380740000e-1 8.126282193440000e-1
7.663412415060000e-1 7.218291187609999e-1 6.790911784070000e-1 6.381206208869999e-1
5.989048981640001e-1 5.614261088369999e-1 5.256614042440000e-1 4.915834037920000e-1
4.591606138520000e-1 4.283578484130000e-1 3.991366461620000e-1 3.714556823330000e-1
3.452711705190000e-1 3.205372531150000e-1 2.972063763030000e-1 2.752296486940000e-1
2.545571803770000e-1 2.351384020250000e-1 2.169223616820000e-1 1.998579994340000e-1
1.838943984600000e-1 1.689810131730000e-1 1.550678737290000e-1 1.421057680530000e-1
1.300464013230000e-1 1.188425343980000e-1 1.084481016400000e-1 9.881830982990001e-2
8.990971899280000e-2 8.168030692899999e-2 7.408951847860000e-2 6.709830129180000e-2
6.066912922330000e-2 5.476601500140000e-2 4.935451326450000e-2 4.440171542380000e-2
3.987623733330000e-2 3.574820099170000e-2 3.198921109080000e-2 2.857232738190000e-2
2.547203349290000e-2 2.266420291960000e-2 2.012606265080000e-2 1.783615493860000e-2
1.577429752360000e-2 1.392154266360000e-2 1.226013516450000e-2 1.077346965010000e-2
9.446047200790000e-3 8.263431530649999e-3 7.212204803330000e-3 6.279923222610000e-3
5.455072496369999e-3 4.727023300510000e-3 4.085986852160000e-3 3.522970723290000e-3
3.029735017440000e-3 2.598749047360000e-3 2.223148645520000e-3 1.896694247190000e-3
1.613729878780000e-3 1.369143184530000e-3 1.158326615050000e-3 9.771398950340000e-4
8.218738751289999e-4 6.892158617880000e-4 5.762165043340000e-4 4.802583044560000e-4
3.990257973280001e-4 3.304774385030000e-4 2.728192147640000e-4 2.244799823730000e-4
1.840885214860000e-4 1.504522822960000e-4 1.225377859820000e-4 9.945263269500000e-5
8.042905909169999e-5 6.480897991119999e-5 5.203044137070000e-5 4.161540906220001e-5
3.315880928670000e-5 2.631874042750000e-5 2.080776987740000e-5 1.638523212570000e-5
1.285044472010000e-5 1.003676085210000e-5 7.806380098860000e-6 6.045842286049999e-6
4.662133356260000e-6 3.579336431700000e-6 2.735765811410000e-6 2.081526347250000e-6
1.576445395980000e-6 1.188329265170000e-6 8.915006852819999e-7 6.655782911849998e-7
4.944633341679999e-7 3.655028365760000e-7 2.688021110380001e-7 1.966629730860000e-7
1.431273554800000e-7 1.036082239520000e-7 7.459299151729999e-8 5.340647983519999e-8
3.802254210020001e-8 2.691521957070000e-8 1.894182130510000e-8 1.325162371130000e-8
9.215003732160000e-9 6.368767162890000e-9 4.374231379470000e-9 2.985288295469999e-9
2.024224963480000e-9 1.363531582720000e-9 9.123215829909999e-10 6.062389373629999e-10
4.000192949999999e-10 2.620438300309999e-10 1.703790639100000e-10 1.099175676220000e-10
7.032833353410001e-11 4.459825821890001e-11 2.800195383020000e-11 1.737958463810000e-11
1.063451695820000e-11 6.386619233230000e-12 3.734925281429999e-12 2.096557987920000e-12
1.098465414110000e-12 5.055554655500000e-13 1.739422692580001e-13 2.180990608520000e-14
0.000000000000000e0 0.000000000000000e0 0.000000000000000e0 0.000000000000000e0
0.000000000000000e0 0.000000000000000e0 0.000000000000000e0 0.000000000000000e0
0.000000000000000e0 0.000000000000000e0 0.000000000000000e0 0.000000000000000e0
0.000000000000000e0 0.000000000000000e0 0.000000000000000e0 0.000000000000000e0
0.000000000000000e0 0.000000000000000e0 0.000000000000000e0 0.000000000000000e0
0.000000000000000e0 0.000000000000000e0 0.000000000000000e0 0.000000000000000e0
0.000000000000000e0 0.000000000000000e0 0.000000000000000e0 0.000000000000000e0
0.000000000000000e0 0.000000000000000e0 0.000000000000000e0 0.000000000000000e0
0.000000000000000e0 0.000000000000000e0 0.000000000000000e0 0.000000000000000e0
0.000000000000000e0 0.000000000000000e0 0.000000000000000e0 0.000000000000000e0
0.000000000000000e0 0.000000000000000e0 0.000000000000000e0 0.000000000000000e0
0.000000000000000e0 0.000000000000000e0 0.000000000000000e0 0.000000000000000e0
0.000000000000000e0 0.000000000000000e0 0.000000000000000e0 0.000000000000000e0
0.000000000000000e0 0.000000000000000e0 0.000000000000000e0 0.000000000000000e0
0.000000000000000e0 0.000000000000000e0 0.000000000000000e0 0.000000000000000e0
0.000000000000000e0 0.000000000000000e0 0.000000000000000e0 0.000000000000000e0
0.000000000000000e0 0.000000000000000e0 0.000000000000000e0 0.000000000000000e0
0.000000000000000e0 0.000000000000000e0 0.000000000000000e0 0.000000000000000e0
0.000000000000000e0 0.000000000000000e0 0.000000000000000e0 0.000000000000000e0
0.000000000000000e0
</PP_RHOATOM>
</UPF>
