<UPF version="2.0.1">
<PP_INFO>
Generated by new atomic code, or converted to UPF format
Author:
Generation date:
Pseudopotential type: US
Element: N
Functional: SLA  PW   PBE  PBE
Suggested minimum cutoff for wavefunctions:   0. Ry
Suggested minimum cutoff for charge density:   0. Ry
The Pseudo was generated with a Non-Relativistic Calculation
L component and cutoff radius for Local Potential:  0   0.0000
Valence configuration:
nl pn  l   occ       Rcut    Rcut US       E pseu
2S  0  0  2.00      0.800      1.100     0.000000
2P  0  1  3.00      0.800      1.100     0.000000
Generation configuration: not available.
</PP_INFO>
<!--
END OF HUMAN READABLE SECTION
-->
<PP_HEADER generated="Generated by new atomic code, or converted to UPF format" author="" date="" comment="" element="N " pseudo_type="US" relativistic="no" is_ultrasoft="true" is_paw="false" is_coulomb="false" has_so="false" has_wfc="false" has_gipaw="false" paw_as_gipaw="false" core_correction="false" functional="SLA  PW   PBE  PBE" z_valence="6.000000000000e0" total_psenergy="-2.962042924861e1" wfc_cutoff="0.000000000000e0" rho_cutoff="0.000000000000e0" l_max="1" l_max_rho="0" l_local="0" mesh_size="729" number_of_wfc="2" number_of_proj="4"/>
<PP_MESH mesh="729" rmax="8.088824608400e1" zmesh="7.000000000000e0">
<PP_R>
0.000000000000000e0 6.052972725709999e-6 1.220941257260000e-5 1.847108816660000e-5
2.483979836600000e-5 3.131737277800000e-5 3.790567228440000e-5 4.460658957610001e-5
5.142204969710001e-5 5.835401059700001e-5 6.540446369430000e-5 7.257543444750000e-5
7.986898293780000e-5 8.728720446060001e-5 9.483223012730001e-5 1.025062274780000e-4
1.103114011030000e-4 1.182499932790000e-4 1.263242846080000e-4 1.345365946790000e-4
1.428892827300000e-4 1.513847483260000e-4 1.600254320500000e-4 1.688138162030000e-4
1.777524255170000e-4 1.868438278840000e-4 1.960906350850000e-4 2.054955035510000e-4
2.150611351180000e-4 2.247902778060000e-4 2.346857266100000e-4 2.447503243020000e-4
2.549869622450001e-4 2.653985812269999e-4 2.759881723050000e-4 2.867587776630000e-4
2.977134914880000e-4 3.088554608580000e-4 3.201878866440000e-4 3.317140244340000e-4
3.434371854620000e-4 3.553607375680000e-4 3.674881061560000e-4 3.798227751850000e-4
3.923682881670000e-4 4.051282491839999e-4 4.181063239269999e-4 4.313062407460000e-4
4.447317917199999e-4 4.583868337519999e-4 4.722752896699999e-4 4.864011493580001e-4
5.007684709040000e-4 5.153813817610001e-4 5.302440799340000e-4 5.453608351910000e-4
5.607359902810001e-4 5.763739621900000e-4 5.922792434040001e-4 6.084564032030000e-4
6.249100889710000e-4 6.416450275350000e-4 6.586660265180000e-4 6.759779757240000e-4
6.935858485399999e-4 7.114947033690000e-4 7.297096850770000e-4 7.482360264760000e-4
7.670790498260001e-4 7.862441683630000e-4 8.057368878540000e-4 8.255628081799999e-4
8.457276249450000e-4 8.662371311100001e-4 8.870972186600001e-4 9.083138802939999e-4
9.298932111480001e-4 9.518414105469999e-4 9.741647837830001e-4 9.968697439300000e-4
1.019962813680000e-3 1.043450627230000e-3 1.067339932180000e-3 1.091637591450000e-3
1.116350585300000e-3 1.141486013290000e-3 1.167051096340000e-3 1.193053178800000e-3
1.219499730580000e-3 1.246398349250000e-3 1.273756762260000e-3 1.301582829170000e-3
1.329884543850000e-3 1.358670036850000e-3 1.387947577680000e-3 1.417725577200000e-3
1.448012590070000e-3 1.478817317160000e-3 1.510148608070000e-3 1.542015463660000e-3
1.574427038680000e-3 1.607392644340000e-3 1.640921751020000e-3 1.675023990990000e-3
1.709709161160000e-3 1.744987225900000e-3 1.780868319920000e-3 1.817362751170000e-3
1.854481003790000e-3 1.892233741140000e-3 1.930631808850000e-3 1.969686237930000e-3
2.009408247970000e-3 2.049809250340000e-3 2.090900851460000e-3 2.132694856150000e-3
2.175203271020000e-3 2.218438307920000e-3 2.262412387440000e-3 2.307138142470000e-3
2.352628421870000e-3 2.398896294110000e-3 2.445955051050000e-3 2.493818211770000e-3
2.542499526420000e-3 2.592012980200000e-3 2.642372797370000e-3 2.693593445340000e-3
2.745689638800000e-3 2.798676343970000e-3 2.852568782930000e-3 2.907382437920000e-3
2.963133055840000e-3 3.019836652760000e-3 3.077509518540000e-3 3.136168221469999e-3
3.195829613070000e-3 3.256510832880000e-3 3.318229313470000e-3 3.381002785340001e-3
3.444849282110001e-3 3.509787145630000e-3 3.575835031310000e-3 3.643011913410000e-3
3.711337090560000e-3 3.780830191250000e-3 3.851511179520000e-3 3.923400360640001e-3
3.996518386980000e-3 4.070886263940000e-3 4.146525355960000e-3 4.223457392700000e-3
4.301704475240000e-3 4.381289082450000e-3 4.462234077450001e-3 4.544562714180000e-3
4.628298644050000e-3 4.713465922779999e-3 4.800089017280000e-3 4.888192812690000e-3
4.977802619520000e-3 5.068944180930000e-3 5.161643680150000e-3 5.255927747920000e-3
5.351823470259999e-3 5.449358396130000e-3 5.548560545440000e-3 5.649458417040000e-3
5.752080996940000e-3 5.856457766629999e-3 5.962618711530000e-3 6.070594329610000e-3
6.180415640200000e-3 6.292114192820000e-3 6.405722076320000e-3 6.521271928020001e-3
6.638796943180001e-3 6.758330884459999e-3 6.879908091630000e-3 7.003563491490000e-3
7.129332607840000e-3 7.257251571700001e-3 7.387357131730000e-3 7.519686664720000e-3
7.654278186410001e-3 7.791170362310000e-3 7.930402518920000e-3 8.072014654929999e-3
8.216047452769999e-3 8.362542290270001e-3 8.511541252570002e-3 8.663087144190001e-3
8.817223501319999e-3 8.973994604369999e-3 9.133445490620000e-3 9.295621967250000e-3
9.460570624409998e-3 9.628338848660000e-3 9.798974836560001e-3 9.972527608540000e-3
1.014904702290000e-2 1.032858379040000e-2 1.051118948830000e-2 1.069691657580000e-2
1.088581840860000e-2 1.107794925460000e-2 1.127336430930000e-2 1.147211971160000e-2
1.167427256020000e-2 1.187988092960000e-2 1.208900388700000e-2 1.230170150960000e-2
1.251803490130000e-2 1.273806621030000e-2 1.296185864750000e-2 1.318947650400000e-2
1.342098517020000e-2 1.365645115390000e-2 1.389594209990000e-2 1.413952680950000e-2
1.438727525970000e-2 1.463925862390000e-2 1.489554929210000e-2 1.515622089150000e-2
1.542134830820000e-2 1.569100770800000e-2 1.596527655890000e-2 1.624423365300000e-2
1.652795912940000e-2 1.681653449680000e-2 1.711004265730000e-2 1.740856793030000e-2
1.771219607610000e-2 1.802101432140000e-2 1.833511138360000e-2 1.865457749670000e-2
1.897950443710000e-2 1.930998555020000e-2 1.964611577660000e-2 1.998799168010000e-2
2.033571147510000e-2 2.068937505470000e-2 2.104908401960000e-2 2.141494170730000e-2
2.178705322150000e-2 2.216552546270000e-2 2.255046715880000e-2 2.294198889580000e-2
2.334020315060000e-2 2.374522432220000e-2 2.415716876560000e-2 2.457615482430000e-2
2.500230286490000e-2 2.543573531160000e-2 2.587657668100000e-2 2.632495361840000e-2
2.678099493380000e-2 2.724483163900000e-2 2.771659698530000e-2 2.819642650180000e-2
2.868445803430000e-2 2.918083178470000e-2 2.968569035160000e-2 3.019917877110000e-2
3.072144455860000e-2 3.125263775080000e-2 3.179291094920000e-2 3.234241936400000e-2
3.290132085830000e-2 3.346977599350000e-2 3.404794807600000e-2 3.463600320330000e-2
3.523411031230000e-2 3.584244122759999e-2 3.646117071090000e-2 3.709047651130000e-2
3.773053941600000e-2 3.838154330280000e-2 3.904367519239999e-2 3.971712530270000e-2
4.040208710270000e-2 4.109875736879999e-2 4.180733624070000e-2 4.252802727960000e-2
4.326103752600000e-2 4.400657755950000e-2 4.476486155950000e-2 4.553610736610000e-2
4.632053654340000e-2 4.711837444280000e-2 4.792985026760000e-2 4.875519713910000e-2
4.959465216350000e-2 5.044845650000001e-2 5.131685543000000e-2 5.220009842780000e-2
5.309843923199999e-2 5.401213591850000e-2 5.494145097470000e-2 5.588665137480000e-2
5.684800865660000e-2 5.782579899950000e-2 5.882030330359999e-2 5.983180727090000e-2
6.086060148680001e-2 6.190698150410000e-2 6.297124792740000e-2 6.405370649990000e-2
6.515466819109999e-2 6.627444928579999e-2 6.741337147549999e-2 6.857176195059999e-2
6.974995349420000e-2 7.094828457790001e-2 7.216709945910001e-2 7.340674827970000e-2
7.466758716679999e-2 7.594997833510000e-2 7.725429019060000e-2 7.858089743700001e-2
7.993018118290001e-2 8.130252905130000e-2 8.269833529120001e-2 8.411800089080000e-2
8.556193369250000e-2 8.703054851030000e-2 8.852426724880001e-2 9.004351902450001e-2
9.158874028900000e-2 9.316037495450001e-2 9.475887452120000e-2 9.638469820710000e-2
9.803831307990000e-2 9.972019419110000e-2 1.014308247130000e-1 1.031706960760000e-1
1.049403081110000e-1 1.067401691950000e-1 1.085707963920000e-1 1.104327156060000e-1
1.123264617310000e-1 1.142525788030000e-1 1.162116201580000e-1 1.182041485900000e-1
1.202307365160000e-1 1.222919661340000e-1 1.243884295950000e-1 1.265207291740000e-1
1.286894774380000e-1 1.308952974260000e-1 1.331388228290000e-1 1.354206981680000e-1
1.377415789810000e-1 1.401021320120000e-1 1.425030354030000e-1 1.449449788870000e-1
1.474286639870000e-1 1.499548042170000e-1 1.525241252890000e-1 1.551373653190000e-1
1.577952750400000e-1 1.604986180180000e-1 1.632481708720000e-1 1.660447234940000e-1
1.688890792810000e-1 1.717820553600000e-1 1.747244828270000e-1 1.777172069860000e-1
1.807610875880000e-1 1.838569990800000e-1 1.870058308590000e-1 1.902084875220000e-1
1.934658891320000e-1 1.967789714760000e-1 2.001486863380000e-1 2.035760017740000e-1
2.070619023830000e-1 2.106073895990000e-1 2.142134819700000e-1 2.178812154580000e-1
2.216116437310000e-1 2.254058384690000e-1 2.292648896710000e-1 2.331899059670000e-1
2.371820149400000e-1 2.412423634430000e-1 2.453721179380000e-1 2.495724648220000e-1
2.538446107740000e-1 2.581897830990000e-1 2.626092300810000e-1 2.671042213410000e-1
2.716760482030000e-1 2.763260240650000e-1 2.810554847750000e-1 2.858657890150000e-1
2.907583186930000e-1 2.957344793370000e-1 3.007957005030000e-1 3.059434361820000e-1
3.111791652170000e-1 3.165043917330000e-1 3.219206455650000e-1 3.274294826970000e-1
3.330324857110000e-1 3.387312642420000e-1 3.445274554390000e-1 3.504227244360000e-1
3.564187648280000e-1 3.625172991630000e-1 3.687200794300000e-1 3.750288875700000e-1
3.814455359810000e-1 3.879718680400000e-1 3.946097586380000e-1 4.013611147120000e-1
4.082278757960000e-1 4.152120145770001e-1 4.223155374640000e-1 4.295404851600000e-1
4.368889332540000e-1 4.443629928130000e-1 4.519648109880000e-1 4.596965716370000e-1
4.675604959430000e-1 4.755588430600000e-1 4.836939107580000e-1 4.919680360860000e-1
5.003835960380000e-1 5.089430082430000e-1 5.176487316540000e-1 5.265032672570000e-1
5.355091587880000e-1 5.446689934659999e-1 5.539854027350000e-1 5.634610630180000e-1
5.730986964890000e-1 5.829010718539999e-1 5.928710051450000e-1 6.030113605320000e-1
6.133250511420000e-1 6.238150399000000e-1 6.344843403750000e-1 6.453360176510000e-1
6.563731892060000e-1 6.675990258050000e-1 6.790167524130000e-1 6.906296491240001e-1
7.024410520960000e-1 7.144543545179999e-1 7.266730075790000e-1 7.391005214620000e-1
7.517404663500001e-1 7.645964734560000e-1 7.776722360610000e-1 7.909715105789999e-1
8.044981176349999e-1 8.182559431600001e-1 8.322489395120000e-1 8.464811266080000e-1
8.609565930790000e-1 8.756794974480000e-1 8.906540693190001e-1 9.058846105979999e-1
9.213754967240000e-1 9.371311779290000e-1 9.531561805160001e-1 9.694551081569999e-1
9.860326432190000e-1 1.002893548110000e0 1.020042666630000e0 1.037484925410000e0
1.055225335250000e0 1.073268992640000e0 1.091621081180000e0 1.110286873050000e0
1.129271730590000e0 1.148581107770000e0 1.168220551800000e0 1.188195704720000e0
1.208512305010000e0 1.229176189220000e0 1.250193293690000e0 1.271569656230000e0
1.293311417860000e0 1.315424824550000e0 1.337916229080000e0 1.360792092770000e0
1.384058987430000e0 1.407723597180000e0 1.431792720410000e0 1.456273271710000e0
1.481172283870000e0 1.506496909890000e0 1.532254425050000e0 1.558452228980000e0
1.585097847810000e0 1.612198936310000e0 1.639763280090000e0 1.667798797860000e0
1.696313543680000e0 1.725315709290000e0 1.754813626430000e0 1.784815769310000e0
1.815330756950000e0 1.846367355710000e0 1.877934481810000e0 1.910041203880000e0
1.942696745550000e0 1.975910488140000e0 2.009691973300000e0 2.044050905800000e0
2.078997156300000e0 2.114540764190000e0 2.150691940440000e0 2.187461070600000e0
2.224858717720000e0 2.262895625430000e0 2.301582720990000e0 2.340931118460000e0
2.380952121870000e0 2.421657228480000e0 2.463058132070000e0 2.505166726340000e0
2.547995108250000e0 2.591555581580000e0 2.635860660410000e0 2.680923072730000e0
2.726755764100000e0 2.773371901360000e0 2.820784876430000e0 2.869008310140000e0
2.918056056150000e0 2.967942204930000e0 3.018681087790000e0 3.070287281050000e0
3.122775610160000e0 3.176161154000000e0 3.230459249200000e0 3.285685494570000e0
3.341855755520000e0 3.398986168700000e0 3.457093146550000e0 3.516193382100000e0
3.576303853690000e0 3.637441829910000e0 3.699624874500000e0 3.762870851450000e0
3.827197930120000e0 3.892624590420000e0 3.959169628160000e0 4.026852160460000e0
4.095691631180000e0 4.165707816590000e0 4.236920830970000e0 4.309351132440000e0
4.383019528840000e0 4.457947183650000e0 4.534155622160000e0 4.611666737560000e0
4.690502797310000e0 4.770686449470000e0 4.852240729260000e0 4.935189065650000e0
5.019555288080000e0 5.105363633350000e0 5.192638752520000e0 5.281405718050000e0
5.371690030970000e0 5.463517628220000e0 5.556914890080000e0 5.651908647800000e0
5.748526191220000e0 5.846795276710000e0 5.946744135080000e0 6.048401479680000e0
6.151796514720000e0 6.256958943580000e0 6.363918977390000e0 6.472707343710000e0
6.583355295330000e0 6.695894619260000e0 6.810357645860000e0 6.926777258170000e0
7.045186901260000e0 7.165620591950000e0 7.288112928510000e0 7.412699100600000e0
7.539414899440000e0 7.668296728010000e0 7.799381611570000e0 7.932707208270000e0
8.068311819970001e0 8.206234403260000e0 8.346514580619999e0 8.489192651840000e0
8.634309605569999e0 8.781907131090000e0 8.932027630320000e0 9.084714229970000e0
9.240010793960000e0 9.397961935970001e0 9.558613032309999e0 9.722010234940001e0
9.888200484710000e0 1.005723152490000e1 1.022915191470000e1 1.040401104380000e1
1.058185914550000e1 1.076274731240000e1 1.094672751010000e1 1.113385259240000e1
1.132417631690000e1 1.151775335980000e1 1.171463933220000e1 1.191489079540000e1
1.211856527800000e1 1.232572129150000e1 1.253641834800000e1 1.275071697670000e1
1.296867874130000e1 1.319036625810000e1 1.341584321360000e1 1.364517438290000e1
1.387842564860000e1 1.411566401910000e1 1.435695764850000e1 1.460237585570000e1
1.485198914460000e1 1.510586922440000e1 1.536408902980000e1 1.562672274240000e1
1.589384581180000e1 1.616553497730000e1 1.644186828980000e1 1.672292513470000e1
1.700878625410000e1 1.729953377040000e1 1.759525120980000e1 1.789602352600000e1
1.820193712520000e1 1.851307989050000e1 1.882954120710000e1 1.915141198820000e1
1.947878470110000e1 1.981175339370000e1 2.015041372140000e1 2.049486297480000e1
2.084520010740000e1 2.120152576430000e1 2.156394231110000e1 2.193255386300000e1
2.230746631490000e1 2.268878737190000e1 2.307662658020000e1 2.347109535850000e1
2.387230703010000e1 2.428037685520000e1 2.469542206450000e1 2.511756189240000e1
2.554691761150000e1 2.598361256740001e1 2.642777221410000e1 2.687952415020000e1
2.733899815500000e1 2.780632622680000e1 2.828164261970000e1 2.876508388310000e1
2.925678890010000e1 2.975689892810000e1 3.026555763910000e1 3.078291116090000e1
3.130910811910000e1 3.184429968000000e1 3.238863959370000e1 3.294228423850000e1
3.350539266580000e1 3.407812664580000e1 3.466065071390000e1 3.525313221790000e1
3.585574136640000e1 3.646865127730000e1 3.709203802770000e1 3.772608070460000e1
3.837096145620000e1 3.902686554420000e1 3.969398139730000e1 4.037250066480000e1
4.106261827220000e1 4.176453247700000e1 4.247844492550001e1 4.320456071100000e1
4.394308843240000e1 4.469424025460000e1 4.545823196880000e1 4.623528305520000e1
4.702561674540000e1 4.782946008710001e1 4.864704400880001e1 4.947860338660000e1
5.032437711150000e1 5.118460815780001e1 5.205954365330000e1 5.294943495000000e1
5.385453769650001e1 5.477511191120001e1 5.571142205750000e1 5.666373711890000e1
5.763233067720001e1 5.861748099070001e1 5.961947107380000e1 6.063858877910000e1
6.167512687920000e1 6.272938315150000e1 6.380166046350000e1 6.489226685960000e1
6.600151565000001e1 6.712972550040000e1 6.827722052370000e1 6.944433037290000e1
7.063139033610000e1 7.183874143280001e1 7.306673051140000e1 7.431571034950000e1
7.558603975490001e1 7.687808366860001e1 7.819221326980001e1 7.952880608250000e1
8.088824608400001e1
</PP_R>
<PP_RAB>
6.001821251010000e-6 6.104414009070000e-6 6.208760447149999e-6 6.314890541970000e-6
6.422834782629999e-6 6.532624179450000e-6 6.644290272780000e-6 6.757865142130002e-6
6.873381415370000e-6 6.990872278080000e-6 7.110371483110000e-6 7.231913360290000e-6
7.355532826230000e-6 7.481265394409999e-6 7.609147185370001e-6 7.739214937070001e-6
7.871506015469999e-6 8.006058425220001e-6 8.142910820640001e-6 8.282102516760002e-6
8.423673500669999e-6 8.567664442969999e-6 8.714116709479999e-6 8.863072373089999e-6
9.014574225880001e-6 9.168665791410000e-6 9.325391337200001e-6 9.484795887470002e-6
9.646925236050002e-6 9.811825959580002e-6 9.979545430840000e-6 1.015013183240000e-5
1.032363417040000e-5 1.050010228870000e-5 1.067958688330000e-5 1.086213951650000e-5
1.104781263220000e-5 1.123665957060000e-5 1.142873458400000e-5 1.162409285160000e-5
1.182279049610000e-5 1.202488459960000e-5 1.223043321980000e-5 1.243949540670000e-5
1.265213121990000e-5 1.286840174570000e-5 1.308836911420000e-5 1.331209651790000e-5
1.353964822930000e-5 1.377108961970000e-5 1.400648717760000e-5 1.424590852830000e-5
1.448942245280000e-5 1.473709890800000e-5 1.498900904650000e-5 1.524522523730000e-5
1.550582108630000e-5 1.577087145760000e-5 1.604045249510000e-5 1.631464164430000e-5
1.659351767420000e-5 1.687716070080000e-5 1.716565220890000e-5 1.745907507680000e-5
1.775751359910000e-5 1.806105351150000e-5 1.836978201500000e-5 1.868378780150000e-5
1.900316107860000e-5 1.932799359610000e-5 1.965837867230000e-5 1.999441122020000e-5
2.033618777550000e-5 2.068380652410000e-5 2.103736733000000e-5 2.139697176450000e-5
2.176272313490000e-5 2.213472651450000e-5 2.251308877270000e-5 2.289791860569999e-5
2.328932656770000e-5 2.368742510240000e-5 2.409232857610000e-5 2.450415330950000e-5
2.492301761200000e-5 2.534904181520000e-5 2.578234830750000e-5 2.622306156970000e-5
2.667130820990000e-5 2.712721700090000e-5 2.759091891650000e-5 2.806254716910001e-5
2.854223724850000e-5 2.903012696030000e-5 2.952635646580000e-5 3.003106832220000e-5
3.054440752340000e-5 3.106652154190001e-5 3.159756037079999e-5 3.213767656730000e-5
3.268702529650000e-5 3.324576437540000e-5 3.381405431920000e-5 3.439205838640000e-5
3.497994262650000e-5 3.557787592730000e-5 3.618603006330001e-5 3.680457974550000e-5
3.743370267130000e-5 3.807357957540000e-5 3.872439428230000e-5 3.938633375820000e-5
4.005958816570000e-5 4.074435091770000e-5 4.144081873329999e-5 4.214919169420001e-5
4.286967330220000e-5 4.360247053780000e-5 4.434779391950000e-5 4.510585756410001e-5
4.587687924879999e-5 4.666108047320000e-5 4.745868652310000e-5 4.826992653520001e-5
4.909503356309999e-5 4.993424464419999e-5 5.078780086750000e-5 5.165594744320000e-5
5.253893377300000e-5 5.343701352180000e-5 5.435044469050000e-5 5.527948969030000e-5
5.622441541770000e-5 5.718549333169999e-5 5.816299953140001e-5 5.915721483530000e-5
6.016842486230001e-5 6.119692011350000e-5 6.224299605550000e-5 6.330695320590001e-5
6.438909721899999e-5 6.548973897360000e-5 6.660919466299999e-5 6.774778588509999e-5
6.890583973500002e-5 7.008368889939999e-5 7.128167175140002e-5 7.250013244830001e-5
7.373942103030000e-5 7.499989352109999e-5 7.628191203000000e-5 7.758584485609998e-5
7.891206659399998e-5 8.026095824170000e-5 8.163290730960002e-5 8.302830793200000e-5
8.444756098070002e-5 8.589107417950000e-5 8.735926222180000e-5 8.885254688980000e-5
9.037135717500000e-5 9.191612940239999e-5 9.348730735520000e-5 9.508534240230000e-5
9.671069362820001e-5 9.836382796499999e-5 1.000452203260000e-4 1.017553537430000e-4
1.034947195040000e-4 1.052638172960000e-4 1.070631553450000e-4 1.088932505660000e-4
1.107546287120000e-4 1.126478245190000e-4 1.145733818670000e-4 1.165318539290000e-4
1.185238033390000e-4 1.205498023430000e-4 1.226104329740000e-4 1.247062872090000e-4
1.268379671470000e-4 1.290060851780000e-4 1.312112641620000e-4 1.334541376020000e-4
1.357353498340000e-4 1.380555562050000e-4 1.404154232670000e-4 1.428156289620000e-4
1.452568628230000e-4 1.477398261710000e-4 1.502652323120000e-4 1.528338067460000e-4
1.554462873750000e-4 1.581034247150000e-4 1.608059821090000e-4 1.635547359500000e-4
1.663504759020000e-4 1.691940051270000e-4 1.720861405150000e-4 1.750277129210000e-4
1.780195674020000e-4 1.810625634610000e-4 1.841575752900000e-4 1.873054920260000e-4
1.905072180070000e-4 1.937636730240000e-4 1.970757925950000e-4 2.004445282280000e-4
2.038708476950000e-4 2.073557353110000e-4 2.109001922180000e-4 2.145052366690000e-4
2.181719043230000e-4 2.219012485440000e-4 2.256943406990000e-4 2.295522704710000e-4
2.334761461690000e-4 2.374670950450000e-4 2.415262636230000e-4 2.456548180220000e-4
2.498539442970000e-4 2.541248487750000e-4 2.584687584050000e-4 2.628869211070000e-4
2.673806061350001e-4 2.719511044370000e-4 2.765997290290001e-4 2.813278153700000e-4
2.861367217490000e-4 2.910278296710000e-4 2.960025442570000e-4 3.010622946460000e-4
3.062085344060000e-4 3.114427419530000e-4 3.167664209730000e-4 3.221811008560000e-4
3.276883371350000e-4 3.332897119320000e-4 3.389868344140000e-4 3.447813412530000e-4
3.506748971000000e-4 3.566691950599999e-4 3.627659571770001e-4 3.689669349340000e-4
3.752739097509999e-4 3.816886935010000e-4 3.882131290260000e-4 3.948490906720000e-4
4.015984848200000e-4 4.084632504420000e-4 4.154453596510000e-4 4.225468182730000e-4
4.297696664189999e-4 4.371159790750000e-4 4.445878666920000e-4 4.521874757999999e-4
4.599169896200000e-4 4.677786286909999e-4 4.757746515100000e-4 4.839073551800000e-4
4.921790760690000e-4 5.005921904830001e-4 5.091491153460000e-4 5.178523088980000e-4
5.267042713960000e-4 5.357075458400001e-4 5.448647186960001e-4 5.541784206410001e-4
5.636513273229999e-4 5.732861601240000e-4 5.830856869460000e-4 5.930527230020001e-4
6.031901316290000e-4 6.135008251090000e-4 6.239877655040001e-4 6.346539655099999e-4
6.455024893180000e-4 6.565364535010000e-4 6.677590279029999e-4 6.791734365510001e-4
6.907829585850001e-4 7.025909291960000e-4 7.146007405850002e-4 7.268158429389999e-4
7.392397454200000e-4 7.518760171749999e-4 7.647282883600002e-4 7.778002511850000e-4
7.910956609699999e-4 8.046183372309999e-4 8.183721647690001e-4 8.323610947950000e-4
8.465891460559998e-4 8.610604059960000e-4 8.757790319289999e-4 8.907492522310001e-4
9.059753675560000e-4 9.214617520729998e-4 9.372128547199999e-4 9.532332004850000e-4
9.695273917020000e-4 9.861001093770000e-4 1.002956114530000e-3 1.020100249570000e-3
1.037537439670000e-3 1.055272694200000e-3 1.073311108160000e-3 1.091657863620000e-3
1.110318231270000e-3 1.129297571860000e-3 1.148601337790000e-3 1.168235074650000e-3
1.188204422850000e-3 1.208515119180000e-3 1.229172998520000e-3 1.250183995480000e-3
1.271554146110000e-3 1.293289589640000e-3 1.315396570240000e-3 1.337881438830000e-3
1.360750654860000e-3 1.384010788220000e-3 1.407668521100000e-3 1.431730649910000e-3
1.456204087230000e-3 1.481095863800000e-3 1.506413130550000e-3 1.532163160650000e-3
1.558353351570000e-3 1.584991227260000e-3 1.612084440250000e-3 1.639640773910000e-3
1.667668144640000e-3 1.696174604150000e-3 1.725168341800000e-3 1.754657686940000e-3
1.784651111270000e-3 1.815157231340000e-3 1.846184810950000e-3 1.877742763730000e-3
1.909840155670000e-3 1.942486207740000e-3 1.975690298500000e-3 2.009461966850000e-3
2.043810914740000e-3 2.078747009960000e-3 2.114280288970000e-3 2.150420959790000e-3
2.187179404940000e-3 2.224566184410000e-3 2.262592038700000e-3 2.301267891890000e-3
2.340604854830000e-3 2.380614228240000e-3 2.421307506050000e-3 2.462696378660000e-3
2.504792736280001e-3 2.547608672380000e-3 2.591156487160000e-3 2.635448691060000e-3
2.680498008360000e-3 2.726317380880000e-3 2.772919971620000e-3 2.820319168610000e-3
2.868528588719999e-3 2.917562081580000e-3 2.967433733580000e-3 3.018157871860000e-3
3.069749068500000e-3 3.122222144650000e-3 3.175592174789999e-3 3.229874491120000e-3
3.285084687890000e-3 3.341238625920000e-3 3.398352437150000e-3 3.456442529280000e-3
3.515525590460000e-3 3.575618594110000e-3 3.636738803800000e-3 3.698903778170000e-3
3.762131376010000e-3 3.826439761410000e-3 3.891847408900000e-3 3.958373108840000e-3
4.026035972770000e-3 4.094855438940001e-3 4.164851277830000e-3 4.236043597899999e-3
4.308452851330000e-3 4.382099839880000e-3 4.457005720930000e-3 4.533192013470001e-3
4.610680604360001e-3 4.689493754560000e-3 4.769654105569999e-3 4.851184685910001e-3
4.934108917740000e-3 5.018450623580000e-3 5.104234033170000e-3 5.191483790430000e-3
5.280224960520000e-3 5.370483037070001e-3 5.462283949470001e-3 5.555654070350000e-3
5.650620223130000e-3 5.747209689770001e-3 5.845450218530001e-3 5.945370032030000e-3
6.046997835280000e-3 6.150362824010001e-3 6.255494692950001e-3 6.362423644480000e-3
6.471180397189999e-3 6.581796194820000e-3 6.694302815120000e-3 6.808732579090000e-3
6.925118360170001e-3 7.043493593750000e-3 7.163892286730000e-3 7.286349027350001e-3
7.410898995049999e-3 7.537577970620001e-3 7.666422346480001e-3 7.797469137129999e-3
7.930755989770000e-3 8.066321195150000e-3 8.204203698510000e-3 8.344443110840000e-3
8.487079720199999e-3 8.632154503330000e-3 8.779709137420001e-3 8.929786012039999e-3
9.082428241390000e-3 9.237679676610000e-3 9.395584918450000e-3 9.556189330029998e-3
9.719539049880000e-3 9.885681005209999e-3 1.005466292540000e-2 1.022653335570000e-2
1.040134167110000e-2 1.057913809070000e-2 1.075997369200000e-2 1.094390042550000e-2
1.113097112980000e-2 1.132123954680000e-2 1.151476033670000e-2 1.171158909450000e-2
1.191178236530000e-2 1.211539766050000e-2 1.232249347510000e-2 1.253312930370000e-2
1.274736565770000e-2 1.296526408320000e-2 1.318688717820000e-2 1.341229861070000e-2
1.364156313710000e-2 1.387474662060000e-2 1.411191605030000e-2 1.435313956040000e-2
1.459848644970000e-2 1.484802720170000e-2 1.510183350460000e-2 1.535997827210000e-2
1.562253566400000e-2 1.588958110820000e-2 1.616119132150000e-2 1.643744433240000e-2
1.671841950290000e-2 1.700419755190000e-2 1.729486057770000e-2 1.759049208240000e-2
1.789117699500000e-2 1.819700169650000e-2 1.850805404460000e-2 1.882442339840000e-2
1.914620064470000e-2 1.947347822410000e-2 1.980635015690000e-2 2.014491207080000e-2
2.048926122810000e-2 2.083949655370000e-2 2.119571866340000e-2 2.155802989290000e-2
2.192653432730000e-2 2.230133783060000e-2 2.268254807680000e-2 2.307027458010000e-2
2.346462872690000e-2 2.386572380740000e-2 2.427367504860000e-2 2.468859964680000e-2
2.511061680210000e-2 2.553984775160000e-2 2.597641580510000e-2 2.642044638030000e-2
2.687206703840000e-2 2.733140752140000e-2 2.779859978890000e-2 2.827377805620000e-2
2.875707883280000e-2 2.924864096170000e-2 2.974860565910000e-2 3.025711655530000e-2
3.077431973560000e-2 3.130036378240000e-2 3.183539981800000e-2 3.237958154800000e-2
3.293306530520001e-2 3.349601009480000e-2 3.406857763980000e-2 3.465093242800000e-2
3.524324175859999e-2 3.584567579050000e-2 3.645840759140000e-2 3.708161318730000e-2
3.771547161320000e-2 3.836016496420000e-2 3.901587844830000e-2 3.968280043930000e-2
4.036112253090000e-2 4.105103959210000e-2 4.175274982249999e-2 4.246645481000000e-2
4.319235958820000e-2 4.393067269550000e-2 4.468160623500000e-2 4.544537593539999e-2
4.622220121280000e-2 4.701230523420000e-2 4.781591498120000e-2 4.863326131520001e-2
4.946457904420000e-2 5.031010698950000e-2 5.117008805499999e-2 5.204476929660000e-2
5.293440199340001e-2 5.383924171950000e-2 5.475954841789999e-2 5.569558647490000e-2
5.664762479620000e-2 5.761593688390000e-2 5.860080091540000e-2 5.960249982290000e-2
6.062132137540001e-2 6.165755826029999e-2 6.271150816870000e-2 6.378347387980000e-2
6.487376334870000e-2 6.598268979440000e-2 6.711057179009999e-2 6.825773335439999e-2
6.942450404470001e-2 7.061121905160000e-2 7.181821929529999e-2 7.304585152370001e-2
7.429446841170000e-2 7.556442866279999e-2 7.685609711210000e-2 7.816984483080001e-2
7.950604923330000e-2 8.086509418520000e-2 8.224737011389999e-2 8.365327412039999e-2
8.508321009390000e-2 8.653758882709999e-2 8.801682813510002e-2 8.952135297460000e-2
9.105159556649999e-2 9.260799551980000e-2 9.419099995830001e-2 9.580106364830000e-2
9.743864913010000e-2 9.910422685029999e-2 1.007982752970000e-1 1.025212811380000e-1
1.042737393590000e-1 1.060561534070000e-1 1.078690353360000e-1 1.097129059520000e-1
1.115882949620000e-1 1.134957411310000e-1 1.154357924290000e-1 1.174090061970000e-1
1.194159493000000e-1 1.214571982950000e-1 1.235333395930000e-1 1.256449696280000e-1
1.277926950320000e-1 1.299771328040000e-1 1.321989104920000e-1 1.344586663680000e-1
1.367570496170000e-1 1.390947205210000e-1 1.414723506450000e-1 1.438906230390000e-1
1.463502324240000e-1 1.488518853990000e-1 1.513963006400000e-1 1.539842091090000e-1
1.566163542610000e-1 1.592934922610000e-1 1.620163921990000e-1 1.647858363120000e-1
1.676026202060000e-1 1.704675530900000e-1 1.733814580030000e-1 1.763451720540000e-1
1.793595466610000e-1 1.824254477950000e-1 1.855437562290000e-1 1.887153677950000e-1
1.919411936330000e-1 1.952221604630000e-1 1.985592108410000e-1 2.019533034380000e-1
2.054054133120000e-1 2.089165321860000e-1 2.124876687370000e-1 2.161198488830000e-1
2.198141160800000e-1 2.235715316190000e-1 2.273931749330000e-1 2.312801439050000e-1
2.352335551870000e-1 2.392545445180000e-1 2.433442670500000e-1 2.475038976810000e-1
2.517346313920000e-1 2.560376835910000e-1 2.604142904620000e-1 2.648657093200000e-1
2.693932189710000e-1 2.739981200800000e-1 2.786817355470000e-1 2.834454108850000e-1
2.882905146030000e-1 2.932184386080000e-1 2.982305985970000e-1 3.033284344650000e-1
3.085134107230000e-1 3.137870169140000e-1 3.191507680430000e-1 3.246062050110000e-1
3.301548950610000e-1 3.357984322230000e-1 3.415384377770000e-1 3.473765607160000e-1
3.533144782170000e-1 3.593538961320000e-1 3.654965494670000e-1 3.717442028890000e-1
3.780986512260000e-1 3.845617199890000e-1 3.911352658920000e-1 3.978211773890000e-1
4.046213752120000e-1 4.115378129260000e-1 4.185724774900000e-1 4.257273898280000e-1
4.330046054060000e-1 4.404062148280000e-1 4.479343444340000e-1 4.555911569090000e-1
4.633788519070000e-1 4.712996666820001e-1 4.793558767320000e-1 4.875497964490000e-1
4.958837797880000e-1 5.043602209419999e-1 5.129815550270001e-1 5.217502587860000e-1
5.306688512980000e-1 5.397398947020000e-1 5.489659949340000e-1 5.583498024730000e-1
5.678940131059999e-1 5.776013686990000e-1 5.874746579890000e-1 5.975167173800000e-1
6.077304317609999e-1 6.181187353349999e-1 6.286846124610000e-1 6.394310985100001e-1
6.503612807400000e-1 6.614782991809999e-1 6.727853475380000e-1 6.842856741060000e-1
6.959825827060000e-1 7.078794336350001e-1 7.199796446270001e-1 7.322866918380000e-1
7.448041108460000e-1 7.575354976620000e-1 7.704845097680000e-1 7.836548671640000e-1
7.970503534380001e-1 8.106748168559999e-1 8.245321714610000e-1 8.386263982039999e-1
8.529615460830000e-1 8.675417333090000e-1 8.823711484870000e-1 8.974540518210000e-1
9.127947763380000e-1 9.283977291310000e-1 9.442673926259999e-1 9.604083258700001e-1
9.768251658419999e-1 9.935226287820001e-1 1.010505511550000e0 1.027778692990000e0
1.045347135370000e0 1.063215885740000e0 1.081390077470000e0 1.099874931640000e0
1.118675758600000e0 1.137797959460000e0 1.157247027650000e0 1.177028550510000e0
1.197148210910000e0 1.217611788820000e0 1.238425163030000e0 1.259594312830000e0
1.281125319700000e0 1.303024369090000e0 1.325297752160000e0 1.347951867630000e0
1.370993223580000e0
</PP_RAB>
</PP_MESH>
<PP_LOCAL columns="4">
-2.942095228380000e1 -2.942095228380000e1 -2.942095226070000e1 -2.942095225110000e1
-2.942095224450000e1 -2.942095223300000e1 -2.942095221890000e1 -2.942095220180000e1
-2.942095218160000e1 -2.942095215800000e1 -2.942095213100000e1 -2.942095210040000e1
-2.942095206600000e1 -2.942095202760000e1 -2.942095198510000e1 -2.942095193820000e1
-2.942095188680000e1 -2.942095183060000e1 -2.942095176950000e1 -2.942095170320000e1
-2.942095163150000e1 -2.942095155410000e1 -2.942095147080000e1 -2.942095138140000e1
-2.942095128550000e1 -2.942095118290000e1 -2.942095107330000e1 -2.942095095640000e1
-2.942095083180000e1 -2.942095069940000e1 -2.942095055860000e1 -2.942095040930000e1
-2.942095025090000e1 -2.942095008320000e1 -2.942094990580000e1 -2.942094971820000e1
-2.942094952000000e1 -2.942094931080000e1 -2.942094909010000e1 -2.942094885750000e1
-2.942094861250000e1 -2.942094835460000e1 -2.942094808330000e1 -2.942094779800000e1
-2.942094749810000e1 -2.942094718310000e1 -2.942094685240000e1 -2.942094650530001e1
-2.942094614130000e1 -2.942094575950000e1 -2.942094535950000e1 -2.942094494030000e1
-2.942094450130000e1 -2.942094404160000e1 -2.942094356060000e1 -2.942094305730000e1
-2.942094253090000e1 -2.942094198040000e1 -2.942094140510000e1 -2.942094080380000e1
-2.942094017570000e1 -2.942093951960000e1 -2.942093883450000e1 -2.942093811930000e1
-2.942093737280000e1 -2.942093659390000e1 -2.942093578130000e1 -2.942093493380000e1
-2.942093404990000e1 -2.942093312850000e1 -2.942093216790000e1 -2.942093116680000e1
-2.942093012360001e1 -2.942092903670000e1 -2.942092790460000e1 -2.942092672550000e1
-2.942092549760000e1 -2.942092421920000e1 -2.942092288830001e1 -2.942092150300000e1
-2.942092006130000e1 -2.942091856110000e1 -2.942091700020000e1 -2.942091537640000e1
-2.942091368740000e1 -2.942091193070000e1 -2.942091010380000e1 -2.942090820420000e1
-2.942090622920000e1 -2.942090417600000e1 -2.942090204170000e1 -2.942089982350000e1
-2.942089751810000e1 -2.942089512250000e1 -2.942089263330000e1 -2.942089004710000e1
-2.942088736040000e1 -2.942088456950000e1 -2.942088167060000e1 -2.942087865980000e1
-2.942087553310000e1 -2.942087228620000e1 -2.942086891470000e1 -2.942086541430000e1
-2.942086178010000e1 -2.942085800740000e1 -2.942085409120000e1 -2.942085002620000e1
-2.942084580720000e1 -2.942084142860000e1 -2.942083688450000e1 -2.942083216920000e1
-2.942082727640000e1 -2.942082219960000e1 -2.942081693250000e1 -2.942081146810000e1
-2.942080579930000e1 -2.942079991880000e1 -2.942079381910000e1 -2.942078749220000e1
-2.942078093020000e1 -2.942077412450000e1 -2.942076706650001e1 -2.942075974710000e1
-2.942075215720000e1 -2.942074428690000e1 -2.942073612640000e1 -2.942072766520000e1
-2.942071889280000e1 -2.942070979790000e1 -2.942070036930000e1 -2.942069059490001e1
-2.942068046260000e1 -2.942066995960000e1 -2.942065907270000e1 -2.942064778850000e1
-2.942063609270000e1 -2.942062397080000e1 -2.942061140770000e1 -2.942059838790000e1
-2.942058489510000e1 -2.942057091260000e1 -2.942055642310000e1 -2.942054140870000e1
-2.942052585090000e1 -2.942050973040000e1 -2.942049302750000e1 -2.942047572150000e1
-2.942045779120000e1 -2.942043921460000e1 -2.942041996900000e1 -2.942040003060000e1
-2.942037937530000e1 -2.942035797760000e1 -2.942033581150000e1 -2.942031284990000e1
-2.942028906500000e1 -2.942026442760000e1 -2.942023890790000e1 -2.942021247490000e1
-2.942018509640000e1 -2.942015673920000e1 -2.942012736910000e1 -2.942009695040000e1
-2.942006544630000e1 -2.942003281870000e1 -2.941999902840000e1 -2.941996403430000e1
-2.941992779450000e1 -2.941989026500000e1 -2.941985140100000e1 -2.941981115540001e1
-2.941976948000000e1 -2.941972632460000e1 -2.941968163750000e1 -2.941963536490000e1
-2.941958745150000e1 -2.941953783970000e1 -2.941948647020000e1 -2.941943328140000e1
-2.941937820980000e1 -2.941932118920001e1 -2.941926215190000e1 -2.941920102700000e1
-2.941913774180000e1 -2.941907222060000e1 -2.941900438530000e1 -2.941893415490000e1
-2.941886144600000e1 -2.941878617160000e1 -2.941870824250000e1 -2.941862756550000e1
-2.941854404490000e1 -2.941845758120000e1 -2.941836807190001e1 -2.941827541010000e1
-2.941817948630000e1 -2.941808018600000e1 -2.941797739180000e1 -2.941787098120000e1
-2.941776082850000e1 -2.941764680230000e1 -2.941752876820000e1 -2.941740658540000e1
-2.941728010970000e1 -2.941714919070000e1 -2.941701367370000e1 -2.941687339760000e1
-2.941672819690000e1 -2.941657789890000e1 -2.941642232620000e1 -2.941626129400000e1
-2.941609461240000e1 -2.941592208310000e1 -2.941574350270000e1 -2.941555865910000e1
-2.941536733420000e1 -2.941516930070000e1 -2.941496432510000e1 -2.941475216380000e1
-2.941453256670000e1 -2.941430527270000e1 -2.941407001380000e1 -2.941382651050001e1
-2.941357447550000e1 -2.941331360910000e1 -2.941304360370000e1 -2.941276413820000e1
-2.941247488270000e1 -2.941217549330000e1 -2.941186561640000e1 -2.941154488330000e1
-2.941121291530000e1 -2.941086931700000e1 -2.941051368250000e1 -2.941014558820000e1
-2.940976459870000e1 -2.940937025990000e1 -2.940896210540000e1 -2.940853964810000e1
-2.940810238790000e1 -2.940764980280001e1 -2.940718135630000e1 -2.940669648890000e1
-2.940619462530000e1 -2.940567516520000e1 -2.940513749200001e1 -2.940458096170000e1
-2.940400491300000e1 -2.940340865520000e1 -2.940279147880000e1 -2.940215264300000e1
-2.940149138670000e1 -2.940080691510000e1 -2.940009841150000e1 -2.939936502320000e1
-2.939860587390000e1 -2.939782004860000e1 -2.939700660680000e1 -2.939616456660000e1
-2.939529291830000e1 -2.939439060830000e1 -2.939345655280000e1 -2.939248962050000e1
-2.939148864800000e1 -2.939045242090000e1 -2.938937968990000e1 -2.938826915100000e1
-2.938711946290000e1 -2.938592922510000e1 -2.938469699720000e1 -2.938342127520000e1
-2.938210051190000e1 -2.938073309190001e1 -2.937931735320000e1 -2.937785156050000e1
-2.937633392850000e1 -2.937476259290000e1 -2.937313563550000e1 -2.937145105350000e1
-2.936970678590000e1 -2.936790068060000e1 -2.936603052310000e1 -2.936409400090000e1
-2.936208873450000e1 -2.936001223890000e1 -2.935786195700000e1 -2.935563521880000e1
-2.935332927620000e1 -2.935094126020000e1 -2.934846821780000e1 -2.934590706620000e1
-2.934325463240000e1 -2.934050760400000e1 -2.933766257220000e1 -2.933471597810000e1
-2.933166415960000e1 -2.932850329400000e1 -2.932522944770000e1 -2.932183851520000e1
-2.931832627240000e1 -2.931468831090000e1 -2.931092009550000e1 -2.930701689420000e1
-2.930297383940000e1 -2.929878585310000e1 -2.929444771300000e1 -2.928995397200000e1
-2.928529902920000e1 -2.928047704420000e1 -2.927548201330000e1 -2.927030767740000e1
-2.926494760440000e1 -2.925939509040001e1 -2.925364324850000e1 -2.924768490290000e1
-2.924151268460000e1 -2.923511891830000e1 -2.922849572490000e1 -2.922163490120001e1
-2.921452802960000e1 -2.920716634960000e1 -2.919954087660000e1 -2.919164226350000e1
-2.918346092920000e1 -2.917498691060000e1 -2.916621000070000e1 -2.915711959040000e1
-2.914770481790000e1 -2.913795439840000e1 -2.912785678580000e1 -2.911739999030000e1
-2.910657175260000e1 -2.909535934850000e1 -2.908374977700000e1 -2.907172955070000e1
-2.905928489830000e1 -2.904640154090000e1 -2.903306490910000e1 -2.901925990380000e1
-2.900497113000000e1 -2.899018264010000e1 -2.897487818580000e1 -2.895904094240001e1
-2.894265378050000e1 -2.892569896920000e1 -2.890815846920000e1 -2.889001361320000e1
-2.887124542180000e1 -2.885183425960000e1 -2.883176017470000e1 -2.881100252870000e1
-2.878954036210000e1 -2.876735199570000e1 -2.874441542290000e1 -2.872070788030000e1
-2.869620626990000e1 -2.867088669550000e1 -2.864472491640000e1 -2.861769584730000e1
-2.858977404560000e1 -2.856093317220000e1 -2.853114651470000e1 -2.850038640510000e1
-2.846862478210000e1 -2.843583256310000e1 -2.840198024780000e1 -2.836703724050000e1
-2.833097249920000e1 -2.829375380470000e1 -2.825534845810000e1 -2.821572249330000e1
-2.817484142720000e1 -2.813266941230000e1 -2.808917004320000e1 -2.804430544620000e1
-2.799803714770000e1 -2.795032509710000e1 -2.790112860200000e1 -2.785040528180000e1
-2.779811207640000e1 -2.774420412700000e1 -2.768863586460000e1 -2.763135981600000e1
-2.757232777960000e1 -2.751148955320000e1 -2.744879420540000e1 -2.738418872350000e1
-2.731761938700000e1 -2.724903033380000e1 -2.717836504450000e1 -2.710556482350000e1
-2.703057040170000e1 -2.695332032960000e1 -2.687375270570000e1 -2.679180347710000e1
-2.670740829950000e1 -2.662050074120000e1 -2.653101427890000e1 -2.643888039900000e1
-2.634403073220000e1 -2.624639504550000e1 -2.614590351710000e1 -2.604248461070000e1
-2.593606749050000e1 -2.582657977040000e1 -2.571395006590000e1 -2.559810561020000e1
-2.547897493960000e1 -2.535648536690000e1 -2.523056579400000e1 -2.510114403550000e1
-2.496814974590000e1 -2.483151158660000e1 -2.469116025140000e1 -2.454702546910000e1
-2.439903910510000e1 -2.424713199630000e1 -2.409123710340000e1 -2.393128618680000e1
-2.376721299250000e1 -2.359894981420000e1 -2.342643073020000e1 -2.324958817430000e1
-2.306835633030000e1 -2.288266798190000e1 -2.269245833580000e1 -2.249766265150000e1
-2.229822099320000e1 -2.209407740730000e1 -2.188518629280000e1 -2.167151399530000e1
-2.145304733830000e1 -2.122979805010000e1 -2.100181305580000e1 -2.076918068850000e1
-2.053204031870000e1 -2.029058688900000e1 -2.004507497760000e1 -1.979581614560000e1
-1.954317160240000e1 -1.928753756630000e1 -1.902932357660000e1 -1.876892592790000e1
-1.850669524040000e1 -1.824290517700000e1 -1.797771996130000e1 -1.771117170920000e1
-1.744314430540000e1 -1.717337914540000e1 -1.690150191610000e1 -1.662709456350000e1
-1.634982388260000e1 -1.606965875030000e1 -1.578738220430000e1 -1.550535613350000e1
-1.522613778800000e1 -1.494982457560000e1 -1.467537276960000e1 -1.440300685530000e1
-1.413351237350000e1 -1.386755581450000e1 -1.360586243030000e1 -1.334921423900000e1
-1.309844663250000e1 -1.285445766160000e1 -1.261820780450000e1 -1.239073445620000e1
-1.217315892180000e1 -1.196650449230000e1 -1.176518864900000e1 -1.156711859670000e1
-1.137234140010000e1 -1.118093822310000e1 -1.099291318400000e1 -1.080815006880000e1
-1.062649297910000e1 -1.044784613810000e1 -1.027220497490000e1 -1.009953066910000e1
-9.929752739800000e0 -9.762827574390000e0 -9.598707314880000e0 -9.437345138670000e0
-9.278694957680001e0 -9.122711418470001e0 -8.969349888129999e0 -8.818566452510000e0
-8.670317903270000e0 -8.524561732230000e0 -8.381256124660000e0 -8.240359949789999e0
-8.101832744739999e0 -7.965634718770000e0 -7.831726734920000e0 -7.700070305190000e0
-7.570627578940000e0 -7.443361336290000e0 -7.318234976820000e0 -7.195212512500000e0
-7.074258556880000e0 -6.955338317640000e0 -6.838417586220000e0 -6.723462730010000e0
-6.610440682000000e0 -6.499318934070000e0 -6.390065525980000e0 -6.282649036470000e0
-6.177038575430000e0 -6.073203774980000e0 -5.971114778590000e0 -5.870742235210000e0
-5.772057286800000e0 -5.675031563450000e0 -5.579637170380000e0 -5.485846683970000e0
-5.393633138380000e0 -5.302970022470000e0 -5.213831266340000e0 -5.126191239080000e0
-5.040024735500000e0 -4.955306974460000e0 -4.872013586200000e0 -4.790120610960000e0
-4.709604487020000e0 -4.630442049510000e0 -4.552610519230000e0 -4.476087501330000e0
-4.400850974930000e0 -4.326879291520000e0 -4.254151165380000e0 -4.182645671370000e0
-4.112342236130000e0 -4.043220635320000e0 -3.975260985360000e0 -3.908443740150000e0
-3.842749683350000e0 -3.778159924620000e0 -3.714655892440000e0 -3.652219329950000e0
-3.590832288270000e0 -3.530477122150000e0 -3.471136483730000e0 -3.412793318070000e0
-3.355430857390000e0 -3.299032616560000e0 -3.243582387750000e0 -3.189064235980000e0
-3.135462494080000e0 -3.082761758400000e0 -3.030946884050000e0 -2.980002980660000e0
-2.929915407970000e0 -2.880669771670000e0 -2.832251919200000e0 -2.784647935710000e0
-2.737844140080000e0 -2.691827081000000e0 -2.646583533090000e0 -2.602100493170000e0
-2.558365176500000e0 -2.515365013180000e0 -2.473087644480000e0 -2.431520919400000e0
-2.390652891110000e0 -2.350471813590000e0 -2.310966138250000e0 -2.272124510620000e0
-2.233935767100000e0 -2.196388931770000e0 -2.159473213230000e0 -2.123178001510000e0
-2.087492865020000e0 -2.052407547590000e0 -2.017911965470000e0 -1.983996204480000e0
-1.950650517130000e0 -1.917865319850000e0 -1.885631190220000e0 -1.853938864240000e0
-1.822779233730000e0 -1.792143343630000e0 -1.762022389490000e0 -1.732407714900000e0
-1.703290809030000e0 -1.674663304140000e0 -1.646516973230000e0 -1.618843727610000e0
-1.591635614640000e0 -1.564884815380000e0 -1.538583642370000e0 -1.512724537410000e0
-1.487300069450000e0 -1.462302932290000e0 -1.437725942930000e0 -1.413562038270000e0
-1.389804274830000e0 -1.366445825620000e0 -1.343479978420000e0 -1.320900133870000e0
-1.298699803570000e0 -1.276872608220000e0 -1.255412275750000e0 -1.234312639560000e0
-1.213567636730000e0 -1.193171306250000e0 -1.173117787350000e0 -1.153401317780000e0
-1.134016232170000e0 -1.114956960390000e0 -1.096218025970000e0 -1.077794044480000e0
-1.059679722020000e0 -1.041869853700000e0 -1.024359322120000e0 -1.007143095900000e0
-9.902162282470000e-1 -9.735738555390000e-1 -9.572111959000001e-1 -9.411235478430001e-1
-9.253062889170000e-1 -9.097548743730000e-1 -8.944648358609999e-1 -8.794317801440000e-1
-8.646513878360000e-1 -8.501194121579999e-1 -8.358316777210000e-1 -8.217840793200001e-1
-8.079725807599999e-1 -7.943932136910000e-1 -7.810420764710000e-1 -7.679153330400000e-1
-7.550092118229999e-1 -7.423200046400000e-1 -7.298440656440000e-1 -7.175778102940001e-1
-7.055177144000000e-1 -6.936603126030000e-1 -6.820021981410001e-1 -6.705400215870000e-1
-6.592704896500000e-1 -6.481903644330000e-1 -6.372964624550001e-1 -6.265856537449999e-1
-6.160548609630000e-1 -6.057010584720000e-1 -5.955212714910000e-1 -5.855125752790000e-1
-5.756720942220000e-1 -5.659970010449999e-1 -5.564845159970000e-1 -5.471319060690000e-1
-5.379364841630000e-1 -5.288956083600000e-1 -5.200066811450000e-1 -5.112671486650000e-1
-5.026744999920000e-1 -4.942262664030000e-1 -4.859200206690000e-1 -4.777533763590000e-1
-4.697239871550000e-1 -4.618295461750000e-1 -4.540677853120000e-1 -4.464364745810000e-1
-4.389334214790000e-1 -4.315564703560000e-1 -4.243035017930000e-1 -4.171724319940000e-1
-4.101612121890000e-1 -4.032678280420000e-1 -3.964902990750000e-1 -3.898266780960000e-1
-3.832750506450000e-1 -3.768335344340000e-1 -3.705002788180000e-1 -3.642734642540000e-1
-3.581513017830000e-1 -3.521320325120000e-1 -3.462139271140000e-1 -3.403952853270000e-1
-3.346744354650000e-1 -3.290497339410000e-1 -3.235195647930000e-1 -3.180823392170000e-1
-3.127364951150000e-1 -3.074804966440000e-1 -3.023128337740000e-1 -2.972320218570000e-1
-2.922366011940000e-1 -2.873251366240000e-1 -2.824962171060000e-1 -2.777484553140000e-1
-2.730804872410000e-1 -2.684909718040000e-1 -2.639785904610000e-1 -2.595420468320000e-1
-2.551800663240000e-1 -2.508913957670000e-1 -2.466748030540000e-1 -2.425290767860000e-1
-2.384530259250000e-1 -2.344454794500000e-1 -2.305052860230000e-1 -2.266313136550000e-1
-2.228224493850000e-1 -2.190775989550000e-1 -2.153956865010000e-1 -2.117756542390000e-1
-2.082164621660000e-1 -2.047170877560000e-1 -2.012765256700000e-1 -1.978937874650000e-1
-1.945679013110000e-1 -1.912979117140000e-1 -1.880828792360000e-1 -1.849218802290000e-1
-1.818140065700000e-1 -1.787583653970000e-1 -1.757540788560000e-1 -1.728002838470000e-1
-1.698961317750000e-1 -1.670407883080000e-1 -1.642334331370000e-1 -1.614732597400000e-1
-1.587594751480000e-1 -1.560912997220000e-1 -1.534679669270000e-1 -1.508887231070000e-1
-1.483528272770000e-1
</PP_LOCAL>
<PP_NONLOCAL>
<PP_BETA.1 index="1" label="2S" angular_momentum="0" cutoff_radius_index="499" cutoff_radius="8.000000000000e-1" ultrasoft_cutoff_radius="1.100000000000e0">
0.000000000000000e0 2.503526859930000e-5 5.049941031860000e-5 7.639642759590002e-5
1.027387139880000e-4 1.295331292270000e-4 1.567742343810000e-4 1.844982171140000e-4
2.126852816940000e-4 2.413537196740000e-4 2.705208676929999e-4 3.001699722590000e-4
3.303436920729999e-4 3.610253613540000e-4 3.922349477520001e-4 4.239691326779999e-4
4.562561667240000e-4 4.890820966700000e-4 5.224937251550000e-4 5.564437103830000e-4
5.909991717810001e-4 6.261416079549999e-4 6.618810997650000e-4 6.982108733240000e-4
7.351995858530000e-4 7.727950807949999e-4 8.110408506199999e-4 8.499489750420002e-4
8.895089236200000e-4 9.297377859330000e-4 9.706777493770000e-4 1.012306403290000e-3
1.054635430300000e-3 1.097713703170000e-3 1.141497598600000e-3 1.186059172500000e-3
1.231354654110000e-3 1.277451694660000e-3 1.324318950350000e-3 1.371981581070000e-3
1.420484243320000e-3 1.469799144260000e-3 1.519952576310000e-3 1.570962243860000e-3
1.622875402780000e-3 1.675627026440000e-3 1.729315379020000e-3 1.783915556820000e-3
1.839432415010000e-3 1.895925994730000e-3 1.953360095390000e-3 2.011779750480000e-3
2.071218425240000e-3 2.131641642650000e-3 2.193139818480000e-3 2.255636731520000e-3
2.319251796260000e-3 2.383910966390000e-3 2.449701357019999e-3 2.516626038820000e-3
2.584661727810000e-3 2.653884364180001e-3 2.724296924950000e-3 2.795875229050000e-3
2.868719811440000e-3 2.942795982350000e-3 3.018119315750000e-3 3.094747258150000e-3
3.172699916660000e-3 3.251945693610001e-3 3.332589777920000e-3 3.414570864780000e-3
3.497990595860001e-3 3.582806922020000e-3 3.669088213510000e-3 3.756853564010000e-3
3.846080906220000e-3 3.936887965050000e-3 4.029197947890000e-3 4.123122472250000e-3
4.218622436970000e-3 4.315774469560000e-3 4.414586426960000e-3 4.515078698660000e-3
4.617292014540000e-3 4.721253681900000e-3 4.826990881150000e-3 4.934539138550001e-3
5.043915791720000e-3 5.155185030370001e-3 5.268323712520000e-3 5.383420892980000e-3
5.500474166190000e-3 5.619538100099999e-3 5.740627624609999e-3 5.863783042350001e-3
5.989060287900000e-3 6.116462313300000e-3 6.246060008500000e-3 6.377845598740000e-3
6.511917759499999e-3 6.648247471769999e-3 6.786933834389998e-3 6.927975083300000e-3
7.071441300790000e-3 7.217343760969999e-3 7.365750864090000e-3 7.516689320290000e-3
7.670217652369999e-3 7.826346500250001e-3 7.985175043529999e-3 8.146699598280001e-3
8.310981447260001e-3 8.478089199269998e-3 8.648031873139999e-3 8.820904147299998e-3
8.996700868120000e-3 9.175531580299999e-3 9.357401811890000e-3 9.542381954700002e-3
9.730526320419999e-3 9.921895153680000e-3 1.011651727670000e-2 1.031448432410000e-2
1.051581483070000e-2 1.072060775610000e-2 1.092888561310000e-2 1.114073216720000e-2
1.135619413910000e-2 1.157533624150000e-2 1.179823525820000e-2 1.202493441920000e-2
1.225550992890000e-2 1.249002977370000e-2 1.272855631440000e-2 1.297115478730000e-2
1.321790217940000e-2 1.346887310840000e-2 1.372412439690000e-2 1.398374470320000e-2
1.424780206070000e-2 1.451636445280000e-2 1.478952609380000e-2 1.506735030110000e-2
1.534992310360000e-2 1.563733391700000e-2 1.592964384290000e-2 1.622695589520000e-2
1.652935054300000e-2 1.683691056440000e-2 1.714972537450000e-2 1.746788734600000e-2
1.779149088760000e-2 1.812061755960000e-2 1.845537197040000e-2 1.879585030370000e-2
1.914213765460000e-2 1.949435595380000e-2 1.985258016380000e-2 2.021693613140000e-2
2.058750936580000e-2 2.096442188110000e-2 2.134777495810000e-2 2.173767109850000e-2
2.213424038629999e-2 2.253757369010000e-2 2.294781188150000e-2 2.336505026430000e-2
2.378942044720000e-2 2.422103933800000e-2 2.466004028350000e-2 2.510653187260000e-2
2.556066002120000e-2 2.602254446280000e-2 2.649231763320000e-2 2.697011830460000e-2
2.745608319420000e-2 2.795034821870000e-2 2.845305955980000e-2 2.896435447670000e-2
2.948438820970000e-2 3.001330461100000e-2 3.055125233710000e-2 3.109839330190000e-2
3.165487953910000e-2 3.222086762580000e-2 3.279652481570000e-2 3.338201815290000e-2
3.397750260850000e-2 3.458316705260000e-2 3.519916843300000e-2 3.582569040790000e-2
3.646291685510000e-2 3.711101705610000e-2 3.777019094720000e-2 3.844061631670001e-2
3.912249239659999e-2 3.981600620580000e-2 4.052136821040000e-2 4.123876475880000e-2
4.196841249569999e-2 4.271051614540000e-2 4.346528600310000e-2 4.423294458630000e-2
4.501369912870000e-2 4.580778576700000e-2 4.661542001940000e-2 4.743684020960000e-2
4.827227834740000e-2 4.912197270480000e-2 4.998616101200000e-2 5.086510203010000e-2
5.175903291179999e-2 5.266821323760000e-2 5.359290850010000e-2 5.453337164110000e-2
5.548987728520000e-2 5.646269686130000e-2 5.745210472049999e-2 5.845838452770000e-2
5.948182166990001e-2 6.052271082850000e-2 6.158133944639999e-2 6.265801741370001e-2
6.375304326269999e-2 6.486673595960001e-2 6.599940184840001e-2 6.715137111960000e-2
6.832296384120000e-2 6.951451715600000e-2 7.072636366570000e-2 7.195885199520000e-2
7.321232585360001e-2 7.448714328780000e-2 7.578366386330000e-2 7.710225237500000e-2
7.844328284990000e-2 7.980713473820000e-2 8.119418858549999e-2 8.260484048369999e-2
8.403948405290000e-2 8.549852567720000e-2 8.698237346279999e-2 8.849144588280000e-2
9.002616779460000e-2 9.158696653360000e-2 9.317428478309999e-2 9.478856211229999e-2
9.643025296559999e-2 9.809981810480000e-2 9.979772133440001e-2 1.015244368810000e-1
1.032804482820000e-1 1.050662427120000e-1 1.068823201630000e-1 1.087291795870000e-1
1.106073398960000e-1 1.125173205990000e-1 1.144596474760000e-1 1.164348611410000e-1
1.184435073900000e-1 1.204861383850000e-1 1.225633175430000e-1 1.246756179920000e-1
1.268236174630000e-1 1.290079079970000e-1 1.312290844400000e-1 1.334877567790000e-1
1.357845386320000e-1 1.381200596740000e-1 1.404949501910000e-1 1.429098587110000e-1
1.453654366080000e-1 1.478623478840000e-1 1.504012683480000e-1 1.529828772490000e-1
1.556078711730000e-1 1.582769508400000e-1 1.609908315720000e-1 1.637502337650000e-1
1.665558937830000e-1 1.694085528100000e-1 1.723089667580000e-1 1.752578990080000e-1
1.782561239040000e-1 1.813044285740000e-1 1.844036061100000e-1 1.875544653300000e-1
1.907578213830000e-1 1.940145023610000e-1 1.973253472720000e-1 2.006912029930000e-1
2.041129300860000e-1 2.075913977280000e-1 2.111274881900000e-1 2.147220898480000e-1
2.183761065600000e-1 2.220904495240000e-1 2.258660403790000e-1 2.297038139320000e-1
2.336047118800000e-1 2.375696870330000e-1 2.415997042950000e-1 2.456957349020000e-1
2.498587642800000e-1 2.540897817900000e-1 2.583897925290000e-1 2.627598059070000e-1
2.672008432390000e-1 2.717139320850000e-1 2.763001123450000e-1 2.809604279480000e-1
2.856959338680000e-1 2.905076911690000e-1 2.953967691790000e-1 3.003642431270000e-1
3.054111963930000e-1 3.105387162180000e-1 3.157478977930000e-1 3.210398403430000e-1
3.264156477260000e-1 3.318764285230000e-1 3.374232948900000e-1 3.430573610730000e-1
3.487797448820000e-1 3.545915652120000e-1 3.604939418080000e-1 3.664879952110000e-1
3.725748448410000e-1 3.787556088410000e-1 3.850314043000000e-1 3.914033420870000e-1
3.978725337810000e-1 4.044400810920000e-1 4.111070831440000e-1 4.178746302890000e-1
4.247438052280000e-1 4.317156803040000e-1 4.387913195800000e-1 4.459717730380000e-1
4.532580783670000e-1 4.606512595310000e-1 4.681523243340000e-1 4.757622628480000e-1
4.834820479909999e-1 4.913126316930000e-1 4.992549442940001e-1 5.073098940710000e-1
5.154783640900000e-1 5.237612106060000e-1 5.321592638909999e-1 5.406733225869999e-1
5.493041561030000e-1 5.580525000040000e-1 5.669190553540000e-1 5.759044876690000e-1
5.850094240670000e-1 5.942344521610000e-1 6.035801180430001e-1 6.130469247590000e-1
6.226353310200000e-1 6.323457484020000e-1 6.421785405510000e-1 6.521340211200000e-1
6.622124525300000e-1 6.724140436770000e-1 6.827389487700000e-1 6.931872655090000e-1
7.037590335930000e-1 7.144542327890000e-1 7.252727820590001e-1 7.362145365720000e-1
7.472792878180000e-1 7.584667596730000e-1 7.697766085610001e-1 7.812084207060001e-1
7.927617088080000e-1 8.044359118720001e-1 8.162303908560000e-1 8.281444265080001e-1
8.401772154340000e-1 8.523278661540001e-1 8.645953955250000e-1 8.769787218559999e-1
8.894766588570000e-1 9.020879102049999e-1 9.148110572080000e-1 9.276445525150001e-1
9.405867045230000e-1 9.536356662179999e-1 9.667894161150000e-1 9.800457409349999e-1
9.934022119869999e-1 1.006856158960000e0 1.020404639550000e0 1.034044406030000e0
1.047771861040000e0 1.061583015240000e0 1.075473431090000e0 1.089438163210000e0
1.103471688260000e0 1.117567826870000e0 1.131719653550000e0 1.145919396960000e0
1.160158325020000e0 1.174426620090000e0 1.188713234920000e0 1.203005735770000e0
1.217290127480000e0 1.231550658530000e0 1.245769609200000e0 1.259927057600000e0
1.274000624820000e0 1.287965198980000e0 1.301792636610000e0 1.315451442950000e0
1.328906429900000e0 1.342118356150000e0 1.355043547050000e0 1.367633501250000e0
1.379834485720000e0 1.391587125180000e0 1.402825992130000e0 1.413479207720000e0
1.423468060310000e0 1.432706659310000e0 1.441101634300000e0 1.448551901720000e0
1.454948516940000e0 1.460174638450000e0 1.464105629200000e0 1.466609329730000e0
1.467546534390000e0 1.466771712020000e0 1.464134011160000e0 1.459478594130000e0
1.452648346590000e0 1.443486008820000e0 1.431836773610000e0 1.417551393700000e0
1.400489832530000e0 1.380525484010000e0 1.357549970030000e0 1.331478503750000e0
1.302255777280000e0 1.269862296940000e0 1.234321039080000e0 1.195704244820000e0
1.154140098640000e0 1.109818952460000e0 1.062998662540000e0 1.014008494610000e0
9.632509381169999e-1 9.112006485989999e-1 8.583996219810000e-1 8.054476103830000e-1
7.529867352029999e-1 7.016792740480000e-1 6.521777357870000e-1 6.050866589970000e-1
5.609161585930000e-1 5.200282256480000e-1 4.825783191290000e-1 4.484570974600000e-1
4.172405165090000e-1 3.881613674630000e-1 3.601221607190000e-1 3.317787824340000e-1
3.017374654270000e-1 2.687407735140000e-1 2.264219448700000e-1 1.728316246650000e-1
1.110583548780000e-1 4.956662606660000e-2 7.026300278530001e-3 -4.761347612910000e-4
0.000000000000000e0 0.000000000000000e0 0.000000000000000e0 0.000000000000000e0
0.000000000000000e0 0.000000000000000e0 0.000000000000000e0 0.000000000000000e0
0.000000000000000e0 0.000000000000000e0 0.000000000000000e0 0.000000000000000e0
0.000000000000000e0 0.000000000000000e0 0.000000000000000e0 0.000000000000000e0
0.000000000000000e0 0.000000000000000e0 0.000000000000000e0 0.000000000000000e0
0.000000000000000e0 0.000000000000000e0 0.000000000000000e0 0.000000000000000e0
0.000000000000000e0 0.000000000000000e0 0.000000000000000e0 0.000000000000000e0
0.000000000000000e0 0.000000000000000e0 0.000000000000000e0 0.000000000000000e0
0.000000000000000e0 0.000000000000000e0 0.000000000000000e0 0.000000000000000e0
0.000000000000000e0 0.000000000000000e0 0.000000000000000e0 0.000000000000000e0
0.000000000000000e0 0.000000000000000e0 0.000000000000000e0 0.000000000000000e0
0.000000000000000e0 0.000000000000000e0 0.000000000000000e0 0.000000000000000e0
0.000000000000000e0 0.000000000000000e0 0.000000000000000e0 0.000000000000000e0
0.000000000000000e0 0.000000000000000e0 0.000000000000000e0 0.000000000000000e0
0.000000000000000e0 0.000000000000000e0 0.000000000000000e0 0.000000000000000e0
0.000000000000000e0 0.000000000000000e0 0.000000000000000e0 0.000000000000000e0
0.000000000000000e0 0.000000000000000e0 0.000000000000000e0 0.000000000000000e0
0.000000000000000e0 0.000000000000000e0 0.000000000000000e0 0.000000000000000e0
0.000000000000000e0 0.000000000000000e0 0.000000000000000e0 0.000000000000000e0
0.000000000000000e0 0.000000000000000e0 0.000000000000000e0 0.000000000000000e0
0.000000000000000e0 0.000000000000000e0 0.000000000000000e0 0.000000000000000e0
0.000000000000000e0 0.000000000000000e0 0.000000000000000e0 0.000000000000000e0
0.000000000000000e0 0.000000000000000e0 0.000000000000000e0 0.000000000000000e0
0.000000000000000e0 0.000000000000000e0 0.000000000000000e0 0.000000000000000e0
0.000000000000000e0 0.000000000000000e0 0.000000000000000e0 0.000000000000000e0
0.000000000000000e0 0.000000000000000e0 0.000000000000000e0 0.000000000000000e0
0.000000000000000e0 0.000000000000000e0 0.000000000000000e0 0.000000000000000e0
0.000000000000000e0 0.000000000000000e0 0.000000000000000e0 0.000000000000000e0
0.000000000000000e0 0.000000000000000e0 0.000000000000000e0 0.000000000000000e0
0.000000000000000e0 0.000000000000000e0 0.000000000000000e0 0.000000000000000e0
0.000000000000000e0 0.000000000000000e0 0.000000000000000e0 0.000000000000000e0
0.000000000000000e0 0.000000000000000e0 0.000000000000000e0 0.000000000000000e0
0.000000000000000e0 0.000000000000000e0 0.000000000000000e0 0.000000000000000e0
0.000000000000000e0 0.000000000000000e0 0.000000000000000e0 0.000000000000000e0
0.000000000000000e0 0.000000000000000e0 0.000000000000000e0 0.000000000000000e0
0.000000000000000e0 0.000000000000000e0 0.000000000000000e0 0.000000000000000e0
0.000000000000000e0 0.000000000000000e0 0.000000000000000e0 0.000000000000000e0
0.000000000000000e0 0.000000000000000e0 0.000000000000000e0 0.000000000000000e0
0.000000000000000e0 0.000000000000000e0 0.000000000000000e0 0.000000000000000e0
0.000000000000000e0 0.000000000000000e0 0.000000000000000e0 0.000000000000000e0
0.000000000000000e0 0.000000000000000e0 0.000000000000000e0 0.000000000000000e0
0.000000000000000e0 0.000000000000000e0 0.000000000000000e0 0.000000000000000e0
0.000000000000000e0 0.000000000000000e0 0.000000000000000e0 0.000000000000000e0
0.000000000000000e0 0.000000000000000e0 0.000000000000000e0 0.000000000000000e0
0.000000000000000e0 0.000000000000000e0 0.000000000000000e0 0.000000000000000e0
0.000000000000000e0 0.000000000000000e0 0.000000000000000e0 0.000000000000000e0
0.000000000000000e0 0.000000000000000e0 0.000000000000000e0 0.000000000000000e0
0.000000000000000e0 0.000000000000000e0 0.000000000000000e0 0.000000000000000e0
0.000000000000000e0 0.000000000000000e0 0.000000000000000e0 0.000000000000000e0
0.000000000000000e0 0.000000000000000e0 0.000000000000000e0 0.000000000000000e0
0.000000000000000e0 0.000000000000000e0 0.000000000000000e0 0.000000000000000e0
0.000000000000000e0 0.000000000000000e0 0.000000000000000e0 0.000000000000000e0
0.000000000000000e0 0.000000000000000e0 0.000000000000000e0 0.000000000000000e0
0.000000000000000e0 0.000000000000000e0 0.000000000000000e0 0.000000000000000e0
0.000000000000000e0 0.000000000000000e0 0.000000000000000e0 0.000000000000000e0
0.000000000000000e0 0.000000000000000e0 0.000000000000000e0 0.000000000000000e0
0.000000000000000e0 0.000000000000000e0 0.000000000000000e0 0.000000000000000e0
0.000000000000000e0 0.000000000000000e0 0.000000000000000e0 0.000000000000000e0
0.000000000000000e0 0.000000000000000e0 0.000000000000000e0 0.000000000000000e0
0.000000000000000e0 0.000000000000000e0 0.000000000000000e0 0.000000000000000e0
0.000000000000000e0 0.000000000000000e0 0.000000000000000e0 0.000000000000000e0
0.000000000000000e0 0.000000000000000e0 0.000000000000000e0 0.000000000000000e0
0.000000000000000e0 0.000000000000000e0 0.000000000000000e0 0.000000000000000e0
0.000000000000000e0
</PP_BETA.1>
<PP_BETA.2 index="2" label="2P" angular_momentum="0" cutoff_radius_index="499" cutoff_radius="8.000000000000e-1" ultrasoft_cutoff_radius="1.100000000000e0">
0.000000000000000e0 5.125173279349999e-5 1.033704469950000e-4 1.564035027320000e-4
2.103183197280000e-4 2.651550218300000e-4 3.209662035780000e-4 3.776812002540000e-4
4.353852305430000e-4 4.940938146110000e-4 5.537691572660000e-4 6.145185826120000e-4
6.762502722399999e-4 7.390640351720000e-4 8.029373777210001e-4 8.679300966670001e-4
9.340084669399999e-4 1.001252872040000e-3 1.069557994520000e-3 1.139157047150000e-3
1.209846808790000e-3 1.281761638020000e-3 1.354918509270000e-3 1.429403300000000e-3
1.505020017870000e-3 1.582023553480000e-3 1.660317333540000e-3 1.739911582720000e-3
1.820919854350000e-3 1.903343510070000e-3 1.987080424160000e-3 2.072298282230000e-3
2.159009384840000e-3 2.247109393690000e-3 2.336827240810000e-3 2.427972315320000e-3
2.520782926960000e-3 2.615063564730000e-3 2.711041229690000e-3 2.808666700620000e-3
2.907875924640000e-3 3.008831051530000e-3 3.111544594580000e-3 3.216012242750000e-3
3.322132285920000e-3 3.430278048810000e-3 3.540115231190000e-3 3.651863858010000e-3
3.765589970550000e-3 3.881139843610000e-3 3.998776338880000e-3 4.118401909700000e-3
4.239991596679999e-3 4.363785091610000e-3 4.489530276929999e-3 4.617630011640000e-3
4.747721355149999e-3 4.880213004509999e-3 5.014853843690000e-3 5.151776047809999e-3
5.291154879010000e-3 5.432828948479999e-3 5.576891999960000e-3 5.723572865670000e-3
5.872588435030000e-3 6.024206222170001e-3 6.178494234130000e-3 6.335344128590002e-3
6.494821204040000e-3 6.657182659650001e-3 6.822141180020001e-3 6.990086421490000e-3
7.160751952500000e-3 7.334455026590001e-3 7.511063687449999e-3 7.690654905100001e-3
7.873470276630002e-3 8.059190593760000e-3 8.248283809749999e-3 8.440461323499999e-3
8.636042076370000e-3 8.834894153200000e-3 9.037141402700000e-3 9.242880861070001e-3
9.452129490030000e-3 9.664940810910000e-3 9.881406946600000e-3 1.010154719880000e-2
1.032549845840000e-2 1.055318120980000e-2 1.078488617270000e-2 1.102045487320000e-2
1.126009375340000e-2 1.150379079470000e-2 1.175168833650000e-2 1.200384203670000e-2
1.226023644650000e-2 1.252108165340000e-2 1.278631238230000e-2 1.305618420170000e-2
1.333053597310000e-2 1.360970943140000e-2 1.389355353530000e-2 1.418231008540000e-2
1.447594294760000e-2 1.477466253160000e-2 1.507844179840000e-2 1.538743420190000e-2
1.570167223450000e-2 1.602137004820000e-2 1.634641406800000e-2 1.667708291030000e-2
1.701342070340000e-2 1.735543652110000e-2 1.770337839540000e-2 1.805717548200000e-2
1.841713132170000e-2 1.878313017030000e-2 1.915544812190000e-2 1.953412641020000e-2
1.991926468170000e-2 2.031095207160000e-2 2.070940234050000e-2 2.111459272520000e-2
2.152678137860000e-2 2.194593608150000e-2 2.237231146550000e-2 2.280594068280000e-2
2.324700016760000e-2 2.369560875480000e-2 2.415183579490000e-2 2.461590015920000e-2
2.508788907360000e-2 2.556792368530000e-2 2.605617456660000e-2 2.655278502130000e-2
2.705786979100000e-2 2.757156395040000e-2 2.809406851000000e-2 2.862547893360000e-2
2.916596454150000e-2 2.971572356860000e-2 3.027483512850000e-2 3.084352327870000e-2
3.142192875470000e-2 3.201018082760000e-2 3.260853483880000e-2 3.321708607780000e-2
3.383602926120000e-2 3.446555679480000e-2 3.510584346380000e-2 3.575706471620000e-2
3.641939795470000e-2 3.709306607040000e-2 3.777823757390000e-2 3.847509624790000e-2
3.918389806010000e-2 3.990475481350000e-2 4.063797471580000e-2 4.138368034070000e-2
4.214215665050000e-2 4.291356184420000e-2 4.369814346280000e-2 4.449615135200000e-2
4.530774964000000e-2 4.613325319459999e-2 4.697280601940000e-2 4.782673007640001e-2
4.869522809159999e-2 4.957856403410000e-2 5.047695334220000e-2 5.139072223270000e-2
5.232006202760000e-2 5.326527687800001e-2 5.422663911120001e-2 5.520440812590000e-2
5.619886232650000e-2 5.721029997450000e-2 5.823899189950001e-2 5.928526064649999e-2
6.034936669670000e-2 6.143163877230000e-2 6.253239410850000e-2 6.365191585340001e-2
6.479054445130000e-2 6.594861350020000e-2 6.712643359250001e-2 6.832433297380001e-2
6.954270012700001e-2 7.078181396970001e-2 7.204208743090001e-2 7.332385572890000e-2
7.462746012540000e-2 7.595332731790000e-2 7.730177584560000e-2 7.867323171310002e-2
8.006805517040000e-2 8.148667468590000e-2 8.292944506240001e-2 8.439683544029998e-2
8.588921881519999e-2 8.740703184760001e-2 8.895071188620001e-2 9.052067110630000e-2
9.211739950670001e-2 9.374129956330000e-2 9.539287349559999e-2 9.707255870950000e-2
9.878083933950000e-2 1.005181993210000e-1 1.022851466420000e-1 1.040821325830000e-1
1.059097157890000e-1 1.077683945620000e-1 1.096586653950000e-1 1.115811030070000e-1
1.135362215100000e-1 1.155245734210000e-1 1.175467280220000e-1 1.196032441320000e-1
1.216947012180000e-1 1.238216731140000e-1 1.259847849570000e-1 1.281846098210000e-1
1.304217876260000e-1 1.326969142830000e-1 1.350106600040000e-1 1.373636362110000e-1
1.397565228390000e-1 1.421899649460000e-1 1.446646584740000e-1 1.471812676160000e-1
1.497405088780000e-1 1.523430780100000e-1 1.549896958510000e-1 1.576810995230000e-1
1.604180231360000e-1 1.632012158320000e-1 1.660314585280000e-1 1.689095064960000e-1
1.718361625070000e-1 1.748122162540000e-1 1.778384881970000e-1 1.809157970220000e-1
1.840449750430000e-1 1.872268834840000e-1 1.904623651970000e-1 1.937523115130000e-1
1.970976013400000e-1 2.004991265750000e-1 2.039578099360000e-1 2.074745757900000e-1
2.110503537480000e-1 2.146861044260000e-1 2.183827795580000e-1 2.221413806480000e-1
2.259628747790000e-1 2.298482719860000e-1 2.337986038800000e-1 2.378148888120000e-1
2.418981716780000e-1 2.460495194640000e-1 2.502700020050000e-1 2.545606983450000e-1
2.589227181890000e-1 2.633571632800000e-1 2.678651715670000e-1 2.724478736670000e-1
2.771064319970000e-1 2.818419982080000e-1 2.866557695470000e-1 2.915489228970000e-1
2.965226738890000e-1 3.015782390170000e-1 3.067168392390000e-1 3.119397326670000e-1
3.172481600660000e-1 3.226433969190000e-1 3.281267124310000e-1 3.336994059940000e-1
3.393627656510000e-1 3.451181106750000e-1 3.509667530220000e-1 3.569100251290000e-1
3.629492658220000e-1 3.690858143930000e-1 3.753210328490000e-1 3.816562728980000e-1
3.880929067890000e-1 3.946323036770000e-1 4.012758361390000e-1 4.080248906080000e-1
4.148808446500000e-1 4.218450847300000e-1 4.289189880009999e-1 4.361039483920000e-1
4.434013380260000e-1 4.508125379390000e-1 4.583389239820000e-1 4.659818544250000e-1
4.737426923440000e-1 4.816227870640001e-1 4.896234676050000e-1 4.977460635260000e-1
5.059918702779999e-1 5.143621875699999e-1 5.228582684339999e-1 5.314813632630000e-1
5.402326831320000e-1 5.491134206620000e-1 5.581247210610000e-1 5.672677100380001e-1
5.765434621000000e-1 5.859530150449999e-1 5.954973554980000e-1 6.051774231000000e-1
6.149940957140000e-1 6.249481992370000e-1 6.350404857239999e-1 6.452716407820001e-1
6.556422739870000e-1 6.661529106590000e-1 6.768039876050000e-1 6.875958494950000e-1
6.985287353800000e-1 7.096027751200000e-1 7.208179838170000e-1 7.321742469960000e-1
7.436713189360001e-1 7.553088095980000e-1 7.670861708630000e-1 7.790027033750000e-1
7.910575142330000e-1 8.032495436520000e-1 8.155775201339999e-1 8.280399677130001e-1
8.406351840559999e-1 8.533612322380000e-1 8.662159130210000e-1 8.791967670720000e-1
8.923010466139999e-1 9.055256979990000e-1 9.188673481450000e-1 9.323222854320001e-1
9.458864320640000e-1 9.595553309910001e-1 9.733241216100000e-1 9.871875100270000e-1
1.001139751890000e0 1.015174625740000e0 1.029285396210000e0 1.043464801070000e0
1.057705005080000e0 1.071997580290000e0 1.086333468290000e0 1.100702944090000e0
1.115095583300000e0 1.129500222720000e0 1.143904921740000e0 1.158296920570000e0
1.172662595310000e0 1.186987417980000e0 1.201255906180000e0 1.215451576160000e0
1.229556891520000e0 1.243553212510000e0 1.257420741940000e0 1.271138468660000e0
1.284684110610000e0 1.298034056510000e0 1.311163302160000e0 1.324045393360000e0
1.336652354960000e0 1.348954634660000e0 1.360921028980000e0 1.372518619480000e0
1.383712710170000e0 1.394466751390000e0 1.404742279240000e0 1.414498845850000e0
1.423693955750000e0 1.432283002540000e0 1.440219203400000e0 1.447453547670000e0
1.453934741460000e0 1.459609152330000e0 1.464420780520000e0 1.468311209400000e0
1.471219593670000e0 1.473082632990000e0 1.473834579500000e0 1.473407241790000e0
1.471730018140000e0 1.468729944050000e0 1.464331761840000e0 1.458458008070000e0
1.451029150260000e0 1.441963723500000e0 1.431178530360000e0 1.418588863210000e0
1.404108778120000e0 1.387651410920000e0 1.369129353300000e0 1.348455079540000e0
1.325541447600000e0 1.300302255410000e0 1.272652889080000e0 1.242511040610000e0
1.209797516210000e0 1.174437144840000e0 1.136359776220000e0 1.095501391090000e0
1.051805319860000e0 1.005223573370000e0 9.557182939110000e-1 9.032633221479999e-1
8.478458885170001e-1 7.894684129680000e-1 7.281504269330000e-1 6.639305924480000e-1
5.968688165070000e-1 5.270484407800000e-1 4.545784875210000e-1 3.795959265660000e-1
3.022679417800000e-1 2.227941356600000e-1 1.414086386150000e-1 5.838204414720001e-2
-2.597689122790000e-2 -1.113198791540000e-1 -1.972581496580000e-1 -2.833620448330000e-1
-3.691612681930000e-1 -4.541459392400000e-1 -5.377685993760000e-1 -6.194473307120000e-1
-6.985701609480000e-1 -7.745009264810000e-1 -8.465867641430000e-1 -9.141673987040001e-1
-9.765863626000000e-1 -1.033204261960000e0 -1.083414145700000e0 -1.126658969020000e0
-1.162451043390000e0 -1.190393249400000e0 -1.210201618170000e0 -1.221728706140000e0
-1.224986938190000e0 -1.220170812360000e0 -1.207676539920000e0 -1.188117311160000e0
-1.162331986810000e0 -1.131384594710000e0 -1.096551612220000e0 -1.059293683340000e0
-1.021208220300000e0 -9.839593885639999e-1 -9.491824125879999e-1 -9.183601918470000e-1
-8.926721695700000e-1 -8.728186615549999e-1 -8.588289792630000e-1 -8.498694185080000e-1
-8.440785246710000e-1 -8.384733338430001e-1 -8.289932722230001e-1 -8.107804461580001e-1
-7.788392293489999e-1 -7.286927600849999e-1 -6.396314169780000e-1 -5.046398772160000e-1
-3.329999536030000e-1 -1.518208120740000e-1 -2.197577704930000e-2 1.495620826550000e-3
0.000000000000000e0 0.000000000000000e0 0.000000000000000e0 0.000000000000000e0
0.000000000000000e0 0.000000000000000e0 0.000000000000000e0 0.000000000000000e0
0.000000000000000e0 0.000000000000000e0 0.000000000000000e0 0.000000000000000e0
0.000000000000000e0 0.000000000000000e0 0.000000000000000e0 0.000000000000000e0
0.000000000000000e0 0.000000000000000e0 0.000000000000000e0 0.000000000000000e0
0.000000000000000e0 0.000000000000000e0 0.000000000000000e0 0.000000000000000e0
0.000000000000000e0 0.000000000000000e0 0.000000000000000e0 0.000000000000000e0
0.000000000000000e0 0.000000000000000e0 0.000000000000000e0 0.000000000000000e0
0.000000000000000e0 0.000000000000000e0 0.000000000000000e0 0.000000000000000e0
0.000000000000000e0 0.000000000000000e0 0.000000000000000e0 0.000000000000000e0
0.000000000000000e0 0.000000000000000e0 0.000000000000000e0 0.000000000000000e0
0.000000000000000e0 0.000000000000000e0 0.000000000000000e0 0.000000000000000e0
0.000000000000000e0 0.000000000000000e0 0.000000000000000e0 0.000000000000000e0
0.000000000000000e0 0.000000000000000e0 0.000000000000000e0 0.000000000000000e0
0.000000000000000e0 0.000000000000000e0 0.000000000000000e0 0.000000000000000e0
0.000000000000000e0 0.000000000000000e0 0.000000000000000e0 0.000000000000000e0
0.000000000000000e0 0.000000000000000e0 0.000000000000000e0 0.000000000000000e0
0.000000000000000e0 0.000000000000000e0 0.000000000000000e0 0.000000000000000e0
0.000000000000000e0 0.000000000000000e0 0.000000000000000e0 0.000000000000000e0
0.000000000000000e0 0.000000000000000e0 0.000000000000000e0 0.000000000000000e0
0.000000000000000e0 0.000000000000000e0 0.000000000000000e0 0.000000000000000e0
0.000000000000000e0 0.000000000000000e0 0.000000000000000e0 0.000000000000000e0
0.000000000000000e0 0.000000000000000e0 0.000000000000000e0 0.000000000000000e0
0.000000000000000e0 0.000000000000000e0 0.000000000000000e0 0.000000000000000e0
0.000000000000000e0 0.000000000000000e0 0.000000000000000e0 0.000000000000000e0
0.000000000000000e0 0.000000000000000e0 0.000000000000000e0 0.000000000000000e0
0.000000000000000e0 0.000000000000000e0 0.000000000000000e0 0.000000000000000e0
0.000000000000000e0 0.000000000000000e0 0.000000000000000e0 0.000000000000000e0
0.000000000000000e0 0.000000000000000e0 0.000000000000000e0 0.000000000000000e0
0.000000000000000e0 0.000000000000000e0 0.000000000000000e0 0.000000000000000e0
0.000000000000000e0 0.000000000000000e0 0.000000000000000e0 0.000000000000000e0
0.000000000000000e0 0.000000000000000e0 0.000000000000000e0 0.000000000000000e0
0.000000000000000e0 0.000000000000000e0 0.000000000000000e0 0.000000000000000e0
0.000000000000000e0 0.000000000000000e0 0.000000000000000e0 0.000000000000000e0
0.000000000000000e0 0.000000000000000e0 0.000000000000000e0 0.000000000000000e0
0.000000000000000e0 0.000000000000000e0 0.000000000000000e0 0.000000000000000e0
0.000000000000000e0 0.000000000000000e0 0.000000000000000e0 0.000000000000000e0
0.000000000000000e0 0.000000000000000e0 0.000000000000000e0 0.000000000000000e0
0.000000000000000e0 0.000000000000000e0 0.000000000000000e0 0.000000000000000e0
0.000000000000000e0 0.000000000000000e0 0.000000000000000e0 0.000000000000000e0
0.000000000000000e0 0.000000000000000e0 0.000000000000000e0 0.000000000000000e0
0.000000000000000e0 0.000000000000000e0 0.000000000000000e0 0.000000000000000e0
0.000000000000000e0 0.000000000000000e0 0.000000000000000e0 0.000000000000000e0
0.000000000000000e0 0.000000000000000e0 0.000000000000000e0 0.000000000000000e0
0.000000000000000e0 0.000000000000000e0 0.000000000000000e0 0.000000000000000e0
0.000000000000000e0 0.000000000000000e0 0.000000000000000e0 0.000000000000000e0
0.000000000000000e0 0.000000000000000e0 0.000000000000000e0 0.000000000000000e0
0.000000000000000e0 0.000000000000000e0 0.000000000000000e0 0.000000000000000e0
0.000000000000000e0 0.000000000000000e0 0.000000000000000e0 0.000000000000000e0
0.000000000000000e0 0.000000000000000e0 0.000000000000000e0 0.000000000000000e0
0.000000000000000e0 0.000000000000000e0 0.000000000000000e0 0.000000000000000e0
0.000000000000000e0 0.000000000000000e0 0.000000000000000e0 0.000000000000000e0
0.000000000000000e0 0.000000000000000e0 0.000000000000000e0 0.000000000000000e0
0.000000000000000e0 0.000000000000000e0 0.000000000000000e0 0.000000000000000e0
0.000000000000000e0 0.000000000000000e0 0.000000000000000e0 0.000000000000000e0
0.000000000000000e0 0.000000000000000e0 0.000000000000000e0 0.000000000000000e0
0.000000000000000e0 0.000000000000000e0 0.000000000000000e0 0.000000000000000e0
0.000000000000000e0 0.000000000000000e0 0.000000000000000e0 0.000000000000000e0
0.000000000000000e0 0.000000000000000e0 0.000000000000000e0 0.000000000000000e0
0.000000000000000e0 0.000000000000000e0 0.000000000000000e0 0.000000000000000e0
0.000000000000000e0 0.000000000000000e0 0.000000000000000e0 0.000000000000000e0
0.000000000000000e0 0.000000000000000e0 0.000000000000000e0 0.000000000000000e0
0.000000000000000e0 0.000000000000000e0 0.000000000000000e0 0.000000000000000e0
0.000000000000000e0
</PP_BETA.2>
<PP_BETA.3 index="3" label="&lt;/" angular_momentum="1" cutoff_radius_index="499" cutoff_radius="0.000000000000e0" ultrasoft_cutoff_radius="0.000000000000e0">
0.000000000000000e0 4.329155726600000e-10 -3.429723424890000e-9 -7.014477910849999e-10
2.435992552330000e-9 6.644565233540000e-9 1.191343344670000e-8 1.830334479010000e-8
2.586570873660000e-8 3.465950496380001e-8 4.474255822970000e-8 5.617470445650000e-8
6.902493026059999e-8 8.335260324079998e-8 9.923129977610001e-8 1.167306692180000e-7
1.359250657490000e-7 1.568920062820000e-7 1.797144742230000e-7 2.044649531860000e-7
2.312435426180000e-7 2.601351531700000e-7 2.912238677810000e-7 3.246235105080000e-7
3.604197544330001e-7 3.987204572770000e-7 4.396413826110001e-7 4.832803861079999e-7
5.297712976460000e-7 5.792191715850001e-7 6.317648575280001e-7 6.875127268140000e-7
7.466393566090000e-7 8.092439634020000e-7 8.754836077149999e-7 9.455370413070000e-7
1.019519369750000e-6 1.097612040970000e-6 1.179986868750000e-6 1.266822352680000e-6
1.358274842460000e-6 1.454570187260000e-6 1.555855664620000e-6 1.662367995150000e-6
1.774336025150000e-6 1.891901914860000e-6 2.015376891710000e-6 2.144938308410000e-6
2.280830916000000e-6 2.423360168389999e-6 2.572705587569999e-6 2.729193477790000e-6
2.893087130480000e-6 3.064674802680000e-6 3.244263995999999e-6 3.432138815780000e-6
3.628671649240001e-6 3.834152685030000e-6 4.048940861790000e-6 4.273385353490000e-6
4.507921042780000e-6 4.752813737300000e-6 5.008600303660002e-6 5.275572742510000e-6
5.554237158910000e-6 5.845019408319999e-6 6.148374905810002e-6 6.464773332039999e-6
6.794717107860000e-6 7.138726388720000e-6 7.497304731060001e-6 7.871051938150000e-6
8.260478793170002e-6 8.666210033190001e-6 9.088848546359998e-6 9.529031602879998e-6
9.987425994010001e-6 1.046465516000000e-5 1.096148480240000e-5 1.147863170770000e-5
1.201681638060000e-5 1.257686336820000e-5 1.315954555210000e-5 1.376575663430000e-5
1.439624125980000e-5 1.505206897500000e-5 1.573405973350000e-5 1.644316812580000e-5
1.718047646510000e-5 1.794691575850000e-5 1.874366004110000e-5 1.957173356340000e-5
2.043233257230000e-5 2.132661032120000e-5 2.225585736690000e-5 2.322128965810000e-5
2.422420685600000e-5 2.526607292610000e-5 2.634823340740000e-5 2.747211386200000e-5
2.863936044680000e-5 2.985135742290001e-5 3.110994417990000e-5 3.241661203260000e-5
3.377324404119999e-5 3.518154657400000e-5 3.664344766100000e-5 3.816084207990000e-5
3.973574257310000e-5 4.137025800460000e-5 4.306646798520000e-5 4.482660925190000e-5
4.665306958510000e-5 4.854805532520000e-5 5.051423116720000e-5 5.255394036040000e-5
5.466999340560000e-5 5.686500474280001e-5 5.914191409730000e-5 6.150352293619999e-5
6.395293007510000e-5 6.649329900190000e-5 6.912775899239999e-5 7.185985437280000e-5
7.469286039009999e-5 7.763053187510000e-5 8.067650874260000e-5 8.383464406890001e-5
8.710901086370001e-5 9.050365911190001e-5 9.402284533520000e-5 9.767109821149999e-5
1.014528591540000e-4 1.053730446850000e-4 1.094363642430000e-4 1.136479952820000e-4
1.180132276530000e-4 1.225373761560000e-4 1.272262135070000e-4 1.320854422280000e-4
1.371211777630000e-4 1.423395620750000e-4 1.477471074400000e-4 1.533505534390000e-4
1.591566108030000e-4 1.651727479050000e-4 1.714060337480000e-4 1.778643095000000e-4
1.845555659910000e-4 1.914877523070000e-4 1.986696881560000e-4 2.061098426790000e-4
2.138175921620000e-4 2.218020481100000e-4 2.300732040369999e-4 2.386410266730000e-4
2.475158826550000e-4 2.567086824320000e-4 2.662304786320000e-4 2.760928693390000e-4
2.863077948380000e-4 2.968876577400001e-4 3.078452329850000e-4 3.191936496030000e-4
3.309468379250000e-4 3.431187509460000e-4 3.557242265000000e-4 3.687782999439999e-4
3.822968497810000e-4 3.962959055380000e-4 4.107924618540000e-4 4.258038699190000e-4
4.413480985490001e-4 4.574438188140000e-4 4.741102251550000e-4 4.913673772020000e-4
5.092358368639999e-4 5.277369397079999e-4 5.468927945580000e-4 5.667263084240000e-4
5.872610349710000e-4 6.085214898459999e-4 6.305330014650000e-4 6.533217589880000e-4
6.769147903329999e-4 7.013402409919999e-4 7.266270728300000e-4 7.528051945810001e-4
7.799059304470001e-4 8.079610838999997e-4 8.370040925690001e-4 8.670693254510001e-4
8.981923110250001e-4 9.304098570760001e-4 9.637601355229998e-4 9.982824033570001e-4
1.034017597720000e-3 1.071007682540000e-3 1.109296559170000e-3 1.148929092100000e-3
1.189952114490000e-3 1.232414007640000e-3 1.276364573500000e-3 1.321855669750000e-3
1.368940812570000e-3 1.417675137820000e-3 1.468116141130000e-3 1.520322962950000e-3
1.574356806010000e-3 1.630281152750000e-3 1.688161585490000e-3 1.748065858160000e-3
1.810064283440000e-3 1.874229336520000e-3 1.940636238560000e-3 2.009362486900000e-3
2.080488819350000e-3 2.154097965100000e-3 2.230276187440000e-3 2.309112512620000e-3
2.390698683350000e-3 2.475130300320000e-3 2.562505455990000e-3 2.652926390970000e-3
2.746498197540000e-3 2.843330110820000e-3 2.943534793240000e-3 3.047228779180000e-3
3.154533068330000e-3 3.265571956020000e-3 3.380475106170000e-3 3.499375515590000e-3
3.622411700770000e-3 3.749726345060000e-3 3.881467118200000e-3 4.017787207200001e-3
4.158844278410000e-3 4.304802141950001e-3 4.455829802210001e-3 4.612102194770000e-3
4.773800194990000e-3 4.941111021590000e-3 5.114228097560001e-3 5.293351666630000e-3
5.478688552310000e-3 5.670453171420000e-3 5.868866596549999e-3 6.074157987760000e-3
6.286564155719999e-3 6.506329952629999e-3 6.733708695020000e-3 6.968962287100000e-3
7.212361533330000e-3 7.464186552880001e-3 7.724727064620001e-3 7.994282463009999e-3
8.273162471700001e-3 8.561687497610000e-3 8.860188452919999e-3 9.169007949910000e-3
9.488499944959999e-3 9.819030468200001e-3 1.016097815890000e-2 1.051473418790000e-2
1.088070326050000e-2 1.125930374200000e-2 1.165096783980000e-2 1.205614297540000e-2
1.247529122210000e-2 1.290889026090000e-2 1.335743427370000e-2 1.382143381130000e-2
1.430141648070000e-2 1.479792804410000e-2 1.531153248670000e-2 1.584281243330000e-2
1.639237044610000e-2 1.696082913710000e-2 1.754883200760000e-2 1.815704403960000e-2
1.878615238520000e-2 1.943686731950000e-2 2.010992260690000e-2 2.080607651830000e-2
2.152611261650000e-2 2.227084023990000e-2 2.304109589410000e-2 2.383774335690000e-2
2.466167557210000e-2 2.551381411060000e-2 2.639511178810000e-2 2.730655212130000e-2
2.824915123950000e-2 2.922395834900000e-2 3.023205729510000e-2 3.127456695300000e-2
3.235264277310001e-2 3.346747789210000e-2 3.462030396060000e-2 3.581239259500000e-2
3.704505631810000e-2 3.831965005580000e-2 3.963757219390001e-2 4.100026579420000e-2
4.240922013640000e-2 4.386597180360000e-2 4.537210617780000e-2 4.692925881450000e-2
4.853911685060000e-2 5.020342022399999e-2 5.192396367830000e-2 5.370259747290000e-2
5.554122990000000e-2 5.744182761690000e-2 5.940641827289999e-2 6.143709174120000e-2
6.353600111519999e-2 6.570536537339999e-2 6.794747028400000e-2 7.026467027940000e-2
7.265938999990000e-2 7.513412626270000e-2 7.769144932220000e-2 8.033400481310000e-2
8.306451551680000e-2 8.588578242710000e-2 8.880068752330001e-2 9.181219399000000e-2
9.492334915580001e-2 9.813728530159999e-2 1.014572212730000e-1 1.048864645140000e-1
1.084284117870000e-1 1.120865516140000e-1 1.158644640990000e-1 1.197658240150000e-1
1.237944006320000e-1 1.279540593790000e-1 1.322487628830000e-1 1.366825715770000e-1
1.412596446000000e-1 1.459842405030000e-1 1.508607174810000e-1 1.558935333230000e-1
1.610872466690000e-1 1.664465147180000e-1 1.719760953760000e-1 1.776808439730000e-1
1.835657145870000e-1 1.896357568440000e-1 1.958961157830000e-1 2.023520284980000e-1
2.090088230000000e-1 2.158719144670000e-1 2.229468018130000e-1 2.302390649960000e-1
2.377543589300000e-1 2.454984102490000e-1 2.534770098710000e-1 2.616960087110000e-1
2.701613085050000e-1 2.788788560170000e-1 2.878546327180000e-1 2.970946466450000e-1
3.066049205530000e-1 3.163914818900000e-1 3.264603491270000e-1 3.368175187420000e-1
3.474689498460000e-1 3.584205487980000e-1 3.696781512100000e-1 3.812475030750000e-1
3.931342412850000e-1 4.053438707030000e-1 4.178817416930000e-1 4.307530247100000e-1
4.439626834650000e-1 4.575154465250000e-1 4.714157767420001e-1 4.856678390860000e-1
5.002754663090000e-1 5.152421224250000e-1 5.305708651050000e-1 5.462643043249999e-1
5.623245604340000e-1 5.787532199130000e-1 5.955512878440000e-1 6.127191398910000e-1
6.302564711060000e-1 6.481622436840000e-1 6.664346312200000e-1 6.850709635890000e-1
7.040676672929999e-1 7.234202066660000e-1 7.431230218010000e-1 7.631694663820000e-1
7.835517435710000e-1 8.042608419690001e-1 8.252864693550000e-1 8.466169881090000e-1
8.682393480200000e-1 8.901390212490000e-1 9.122999360700000e-1 9.347044114339999e-1
9.573330924530000e-1 9.801648860749999e-1 1.003176897420000e0 1.026344367240000e0
1.049640608760000e0 1.073036945550000e0 1.096502647980000e0 1.120004868480000e0
1.143508574580000e0 1.166976477130000e0 1.190368953880000e0 1.213643963240000e0
1.236756949290000e0 1.259660730850000e0 1.282305373630000e0 1.304638039170000e0
1.326602807500000e0 1.348140465080000e0 1.369188254870000e0 1.389679579820000e0
1.409543653510000e0 1.428705091730000e0 1.447083436840000e0 1.464592611000000e0
1.481140291580000e0 1.496627208150000e0 1.510946360780000e0 1.523982163740000e0
1.535609526960000e0 1.545692890900000e0 1.554085243960000e0 1.560627159590000e0
1.565145907340000e0 1.567454707820000e0 1.567352221770000e0 1.564622386060000e0
1.559034737940000e0 1.550345392670000e0 1.538298874890000e0 1.522631029900000e0
1.503073271600000e0 1.479358444490000e0 1.451228593390000e0 1.418444927500000e0
1.380800246940000e0 1.338134032460000e0 1.290350307990000e0 1.237438211040000e0
1.179494976920000e0 1.116750707770000e0 1.049593844940000e0 9.785957026449999e-1
9.045316810460001e-1 8.283959514140001e-1 7.514054035470000e-1 6.749876671000000e-1
6.007470495250001e-1 5.304016303210000e-1 4.656848065110000e-1 4.082059424690000e-1
3.592683613850000e-1 3.196502269910000e-1 2.893668772890000e-1 2.674553234940000e-1
2.518572207900000e-1 2.393022708700000e-1 2.185023131400000e-1 1.820541268190000e-1
1.280513023130000e-1 6.246041323169999e-2 9.561617961410001e-3 -8.168495257559998e-4
0.000000000000000e0 0.000000000000000e0 0.000000000000000e0 0.000000000000000e0
0.000000000000000e0 0.000000000000000e0 0.000000000000000e0 0.000000000000000e0
0.000000000000000e0 0.000000000000000e0 0.000000000000000e0 0.000000000000000e0
0.000000000000000e0 0.000000000000000e0 0.000000000000000e0 0.000000000000000e0
0.000000000000000e0 0.000000000000000e0 0.000000000000000e0 0.000000000000000e0
0.000000000000000e0 0.000000000000000e0 0.000000000000000e0 0.000000000000000e0
0.000000000000000e0 0.000000000000000e0 0.000000000000000e0 0.000000000000000e0
0.000000000000000e0 0.000000000000000e0 0.000000000000000e0 0.000000000000000e0
0.000000000000000e0 0.000000000000000e0 0.000000000000000e0 0.000000000000000e0
0.000000000000000e0 0.000000000000000e0 0.000000000000000e0 0.000000000000000e0
0.000000000000000e0 0.000000000000000e0 0.000000000000000e0 0.000000000000000e0
0.000000000000000e0 0.000000000000000e0 0.000000000000000e0 0.000000000000000e0
0.000000000000000e0 0.000000000000000e0 0.000000000000000e0 0.000000000000000e0
0.000000000000000e0 0.000000000000000e0 0.000000000000000e0 0.000000000000000e0
0.000000000000000e0 0.000000000000000e0 0.000000000000000e0 0.000000000000000e0
0.000000000000000e0 0.000000000000000e0 0.000000000000000e0 0.000000000000000e0
0.000000000000000e0 0.000000000000000e0 0.000000000000000e0 0.000000000000000e0
0.000000000000000e0 0.000000000000000e0 0.000000000000000e0 0.000000000000000e0
0.000000000000000e0 0.000000000000000e0 0.000000000000000e0 0.000000000000000e0
0.000000000000000e0 0.000000000000000e0 0.000000000000000e0 0.000000000000000e0
0.000000000000000e0 0.000000000000000e0 0.000000000000000e0 0.000000000000000e0
0.000000000000000e0 0.000000000000000e0 0.000000000000000e0 0.000000000000000e0
0.000000000000000e0 0.000000000000000e0 0.000000000000000e0 0.000000000000000e0
0.000000000000000e0 0.000000000000000e0 0.000000000000000e0 0.000000000000000e0
0.000000000000000e0 0.000000000000000e0 0.000000000000000e0 0.000000000000000e0
0.000000000000000e0 0.000000000000000e0 0.000000000000000e0 0.000000000000000e0
0.000000000000000e0 0.000000000000000e0 0.000000000000000e0 0.000000000000000e0
0.000000000000000e0 0.000000000000000e0 0.000000000000000e0 0.000000000000000e0
0.000000000000000e0 0.000000000000000e0 0.000000000000000e0 0.000000000000000e0
0.000000000000000e0 0.000000000000000e0 0.000000000000000e0 0.000000000000000e0
0.000000000000000e0 0.000000000000000e0 0.000000000000000e0 0.000000000000000e0
0.000000000000000e0 0.000000000000000e0 0.000000000000000e0 0.000000000000000e0
0.000000000000000e0 0.000000000000000e0 0.000000000000000e0 0.000000000000000e0
0.000000000000000e0 0.000000000000000e0 0.000000000000000e0 0.000000000000000e0
0.000000000000000e0 0.000000000000000e0 0.000000000000000e0 0.000000000000000e0
0.000000000000000e0 0.000000000000000e0 0.000000000000000e0 0.000000000000000e0
0.000000000000000e0 0.000000000000000e0 0.000000000000000e0 0.000000000000000e0
0.000000000000000e0 0.000000000000000e0 0.000000000000000e0 0.000000000000000e0
0.000000000000000e0 0.000000000000000e0 0.000000000000000e0 0.000000000000000e0
0.000000000000000e0 0.000000000000000e0 0.000000000000000e0 0.000000000000000e0
0.000000000000000e0 0.000000000000000e0 0.000000000000000e0 0.000000000000000e0
0.000000000000000e0 0.000000000000000e0 0.000000000000000e0 0.000000000000000e0
0.000000000000000e0 0.000000000000000e0 0.000000000000000e0 0.000000000000000e0
0.000000000000000e0 0.000000000000000e0 0.000000000000000e0 0.000000000000000e0
0.000000000000000e0 0.000000000000000e0 0.000000000000000e0 0.000000000000000e0
0.000000000000000e0 0.000000000000000e0 0.000000000000000e0 0.000000000000000e0
0.000000000000000e0 0.000000000000000e0 0.000000000000000e0 0.000000000000000e0
0.000000000000000e0 0.000000000000000e0 0.000000000000000e0 0.000000000000000e0
0.000000000000000e0 0.000000000000000e0 0.000000000000000e0 0.000000000000000e0
0.000000000000000e0 0.000000000000000e0 0.000000000000000e0 0.000000000000000e0
0.000000000000000e0 0.000000000000000e0 0.000000000000000e0 0.000000000000000e0
0.000000000000000e0 0.000000000000000e0 0.000000000000000e0 0.000000000000000e0
0.000000000000000e0 0.000000000000000e0 0.000000000000000e0 0.000000000000000e0
0.000000000000000e0 0.000000000000000e0 0.000000000000000e0 0.000000000000000e0
0.000000000000000e0 0.000000000000000e0 0.000000000000000e0 0.000000000000000e0
0.000000000000000e0 0.000000000000000e0 0.000000000000000e0 0.000000000000000e0
0.000000000000000e0 0.000000000000000e0 0.000000000000000e0 0.000000000000000e0
0.000000000000000e0 0.000000000000000e0 0.000000000000000e0 0.000000000000000e0
0.000000000000000e0 0.000000000000000e0 0.000000000000000e0 0.000000000000000e0
0.000000000000000e0 0.000000000000000e0 0.000000000000000e0 0.000000000000000e0
0.000000000000000e0 0.000000000000000e0 0.000000000000000e0 0.000000000000000e0
0.000000000000000e0 0.000000000000000e0 0.000000000000000e0 0.000000000000000e0
0.000000000000000e0 0.000000000000000e0 0.000000000000000e0 0.000000000000000e0
0.000000000000000e0
</PP_BETA.3>
<PP_BETA.4 index="4" label="  " angular_momentum="1" cutoff_radius_index="499" cutoff_radius="0.000000000000e0" ultrasoft_cutoff_radius="0.000000000000e0">
0.000000000000000e0 -6.749259902590000e-10 -5.911232260740000e-9 -7.890202609429999e-9
-1.131456007500000e-8 -1.577729902190000e-8 -2.137768539390000e-8 -2.816603178049999e-8
-3.620264563549999e-8 -4.554586873530001e-8 -5.625936361220000e-8 -6.840898231149999e-8
-8.206071224980001e-8 -9.728598214339998e-8 -1.141578311930000e-7 -1.327527235790000e-7
-1.531476039180000e-7 -1.754271019960000e-7 -1.996738914120000e-7 -2.259782454509999e-7
-2.544303566319999e-7 -2.851268444860000e-7 -3.181655257790000e-7 -3.536508097430001e-7
-3.916871290329999e-7 -4.323862718830000e-7 -4.758637927590000e-7 -5.222378868290001e-7
-5.716339764540001e-7 -6.241775398320000e-7 -6.800047270630001e-7 -7.392523074190001e-7
-8.020655809400001e-7 -8.685898233520000e-7 -9.389845704599999e-7 -1.013405141450000e-6
-1.092020922280000e-6 -1.175004821160000e-6 -1.262531063440000e-6 -1.354792404240000e-6
-1.451973343660000e-6 -1.554282269000000e-6 -1.661915877400000e-6 -1.775095743260000e-6
-1.894048458410000e-6 -2.018988561480000e-6 -2.150175012950000e-6 -2.287841865880000e-6
-2.432251332100000e-6 -2.583672519070000e-6 -2.742373528890000e-6 -2.908650783970001e-6
-3.082795669920000e-6 -3.265114914200000e-6 -3.455932015480001e-6 -3.655572047700000e-6
-3.864385053229999e-6 -4.082717275089999e-6 -4.310947761970000e-6 -4.549443564200000e-6
-4.798614274469999e-6 -5.058860448230000e-6 -5.330613585989998e-6 -5.614302553350000e-6
-5.910397965010000e-6 -6.219356333610000e-6 -6.541678312609999e-6 -6.877869748459999e-6
-7.228448446210000e-6 -7.593965056000000e-6 -7.974979704920003e-6 -8.372080519460001e-6
-8.785867931370001e-6 -9.216970774190001e-6 -9.666037632689999e-6 -1.013374001840000e-5
-1.062077433010000e-5 -1.112786613900000e-5 -1.165575483050000e-5 -1.220522119220000e-5
-1.277706387350000e-5 -1.337210867330000e-5 -1.399122654940000e-5 -1.463529890250000e-5
-1.530524244860000e-5 -1.600203242410000e-5 -1.672663105410000e-5 -1.748008785850000e-5
-1.826344392620000e-5 -1.907780971600000e-5 -1.992431341540000e-5 -2.080414142330000e-5
-2.171850414880000e-5 -2.266867153190000e-5 -2.365594693490000e-5 -2.468168072760000e-5
-2.574728641350000e-5 -2.685419969580000e-5 -2.800393296550000e-5 -2.919803734430000e-5
-3.043812682420000e-5 -3.172586576570000e-5 -3.306298040110000e-5 -3.445125848000000e-5
-3.589255258360000e-5 -3.738877124840001e-5 -3.894190674429999e-5 -4.055400450730001e-5
-4.222718854980000e-5 -4.396366743530001e-5 -4.576570543140001e-5 -4.763567301889999e-5
-4.957600222210000e-5 -5.158921720120001e-5 -5.367794304489999e-5 -5.584486542939999e-5
-5.809281680680000e-5 -6.042466402220001e-5 -6.284343286970000e-5 -6.535221444749999e-5
-6.795423286130000e-5 -7.065281224539999e-5 -7.345139795920000e-5 -7.635355502309999e-5
-7.936298003240000e-5 -8.248347765280000e-5 -8.571901516859999e-5 -8.907367281620003e-5
-9.255169374630000e-5 -9.615745016150001e-5 -9.989548627440001e-5 -1.037704904480000e-4
-1.077873117150000e-4 -1.119510071750000e-4 -1.162667352490000e-4 -1.207399110520000e-4
-1.253760962370000e-4 -1.301810527030000e-4 -1.351607539590000e-4 -1.403213657440000e-4
-1.456692880620000e-4 -1.512111173220000e-4 -1.569537079080000e-4 -1.629041403630000e-4
-1.690697253090000e-4 -1.754580638570000e-4 -1.820769790900000e-4 -1.889346065910000e-4
-1.960393310090000e-4 -2.033998497100000e-4 -2.110251552370000e-4 -2.189245491220000e-4
-2.271076486780000e-4 -2.355844427180000e-4 -2.443652064780000e-4 -2.534606160860000e-4
-2.628817072720000e-4 -2.726398926820000e-4 -2.827469791030000e-4 -2.932151890900000e-4
-3.040571669040000e-4 -3.152859854260001e-4 -3.269151759960000e-4 -3.389587565990000e-4
-3.514311805960000e-4 -3.643474531290000e-4 -3.777230679620000e-4 -3.915740659200000e-4
-4.059170222040000e-4 -4.207691193870000e-4 -4.361481016760000e-4 -4.520723225710000e-4
-4.685608007940000e-4 -4.856331783320000e-4 -5.033097859860000e-4 -5.216116487170000e-4
-5.405605251720001e-4 -5.601789109669999e-4 -5.804900834150000e-4 -6.015181094400001e-4
-6.232878950950001e-4 -6.458251848249999e-4 -6.691566260410000e-4 -6.933097704910001e-4
-7.183130967009999e-4 -7.441960907270001e-4 -7.709892270329998e-4 -7.987240239780001e-4
-8.274330937759999e-4 -8.571501257950001e-4 -8.879100166960001e-4 -9.197487901000001e-4
-9.527037610360001e-4 -9.868134592980001e-4 -1.022117767600000e-3 -1.058657910400000e-3
-1.096476510970000e-3 -1.135617657310000e-3 -1.176126908040000e-3 -1.218051399790000e-3
-1.261439837710000e-3 -1.306342598960000e-3 -1.352811762720000e-3 -1.400901149170000e-3
-1.450666426050000e-3 -1.502165122100000e-3 -1.555456709410000e-3 -1.610602670940000e-3
-1.667666549450000e-3 -1.726714025700000e-3 -1.787812993740000e-3 -1.851033608340000e-3
-1.916448412300000e-3 -1.984132312790000e-3 -2.054162783010000e-3 -2.126619846020000e-3
-2.201586202180000e-3 -2.279147301460000e-3 -2.359391440140000e-3 -2.442409834890000e-3
-2.528296727620000e-3 -2.617149481090000e-3 -2.709068673540000e-3 -2.804158182040000e-3
-2.902525325430000e-3 -3.004280922620000e-3 -3.109539452480000e-3 -3.218419100549999e-3
-3.331041949730000e-3 -3.447534022240000e-3 -3.568025462510000e-3 -3.692650603620000e-3
-3.821548171540000e-3 -3.954861296890000e-3 -4.092737769150000e-3 -4.235330092570000e-3
-4.382795657280000e-3 -4.535296864589999e-3 -4.693001277260000e-3 -4.856081770679999e-3
-5.024716676750001e-3 -5.199089930790000e-3 -5.379391241010000e-3 -5.565816234560001e-3
-5.758566610850000e-3 -5.957850345380001e-3 -6.163881761470000e-3 -6.376881864469999e-3
-6.597078284040001e-3 -6.824705647320001e-3 -7.060005659649999e-3 -7.303227269650002e-3
-7.554626890650001e-3 -7.814468527350000e-3 -8.083023995450000e-3 -8.360573080300000e-3
-8.647403697010001e-3 -8.943812100490000e-3 -9.250103032109999e-3 -9.566589899789999e-3
-9.893594976449998e-3 -1.023144949320000e-2 -1.058049390830000e-2 -1.094107798510000e-2
-1.131356096420000e-2 -1.169831173260000e-2 -1.209570898410000e-2 -1.250614125200000e-2
-1.293000717260000e-2 -1.336771548360000e-2 -1.381968520120000e-2 -1.428634566840000e-2
-1.476813663050000e-2 -1.526550831410000e-2 -1.577892144230000e-2 -1.630884726710000e-2
-1.685576755970000e-2 -1.742017458290000e-2 -1.800257102140000e-2 -1.860346992690000e-2
-1.922339455400000e-2 -1.986287825580000e-2 -2.052246423140000e-2 -2.120270534560000e-2
-2.190416381860000e-2 -2.262741084680000e-2 -2.337302636110000e-2 -2.414159834320000e-2
-2.493372255580000e-2 -2.575000179290000e-2 -2.659104530500000e-2 -2.745746802159999e-2
-2.834988973160000e-2 -2.926893418710000e-2 -3.021522804320000e-2 -3.118939973520000e-2
-3.219207825260000e-2 -3.322389172270000e-2 -3.428546591940000e-2 -3.537742260690000e-2
-3.650037769260000e-2 -3.765493927990000e-2 -3.884170549000000e-2 -4.006126207619999e-2
-4.131417992719999e-2 -4.260101219500000e-2 -4.392229141260000e-2 -4.527852603610000e-2
-4.667019713090000e-2 -4.809775439190000e-2 -4.956161209630000e-2 -5.106214467359999e-2
-5.259968190470000e-2 -5.417450376200000e-2 -5.578683497120000e-2 -5.743683895700000e-2
-5.912461159850000e-2 -6.085017433130000e-2 -6.261346688690001e-2 -6.441433948480001e-2
-6.625254446420000e-2 -6.812772740380001e-2 -7.003941757940001e-2 -7.198701789279999e-2
-7.396979397719999e-2 -7.598686289419999e-2 -7.803718069020000e-2 -8.011952967750000e-2
-8.223250456210000e-2 -8.437449787669999e-2 -8.654368464080001e-2 -8.873800595120001e-2
-9.095515184580000e-2 -9.319254307490000e-2 -9.544731194190000e-2 -9.771628217769999e-2
-9.999594767500000e-2 -1.022824503120000e-1 -1.045715565350000e-1 -1.068586330100000e-1
-1.091386210270000e-1 -1.114060099390000e-1 -1.136548093830000e-1 -1.158785204690000e-1
-1.180701058950000e-1 -1.202219590540000e-1 -1.223258719700000e-1 -1.243730026110000e-1
-1.263538410320000e-1 -1.282581748710000e-1 -1.300750542290000e-1 -1.317927558700000e-1
-1.333987471740000e-1 -1.348796498360000e-1 -1.362212035620000e-1 -1.374082301010000e-1
-1.384245977460000e-1 -1.392531868000000e-1 -1.398758562410000e-1 -1.402734120810000e-1
-1.404255778810000e-1 -1.403109679720000e-1 -1.399070639320000e-1 -1.391901950840000e-1
-1.381355236080000e-1 -1.367170353790000e-1 -1.349075369550000e-1 -1.326786603970000e-1
-1.300008763320000e-1 -1.268435170300000e-1 -1.231748104300000e-1 -1.189619268530000e-1
-1.141710397090000e-1 -1.087674020860000e-1 -1.027154409100000e-1 -9.597887072480001e-2
-8.852082906400000e-2 -8.030403574309998e-2 -7.129097836000000e-2 -6.144412642080001e-2
-5.072617685390000e-2 -3.910033332950000e-2 -2.653062244710000e-2 -1.298224936720000e-2
1.578003971580000e-3 1.718133553680000e-2 3.385643147560000e-2 5.162892372280000e-2
7.052079400630000e-2 9.054972208970000e-2 1.117283761000000e-1 1.340636434100000e-1
1.575558009600000e-1 1.821976245300000e-1 2.079734375910000e-1 2.348581008560000e-1
2.628159455350000e-1 2.917996539290000e-1 3.217490935800000e-1 3.525901121850000e-1
3.842333037000000e-1 4.165727578110000e-1 4.494848084990000e-1 4.828268004670000e-1
5.164358958639999e-1 5.501279483050000e-1 5.836964749830001e-1 6.169117635730000e-1
6.495201553360000e-1 6.812435517580000e-1 7.117791984639999e-1 7.407998059940000e-1
7.679540739239999e-1 7.928676910240000e-1 8.151448905039999e-1 8.343706452660001e-1
8.501135929280000e-1 8.619297845890001e-1 8.693673532580000e-1 8.719721982919999e-1
8.692947789970001e-1 8.608981047529999e-1 8.463669972280000e-1 8.253186843990001e-1
7.974147620270000e-1 7.623745271790000e-1 7.199896465480000e-1 6.701400707350000e-1
6.128110399130000e-1 5.481109471500000e-1 4.762897301600000e-1 3.977573496360000e-1
3.131017812470000e-1 2.231057989300000e-1 1.287616588740000e-1 3.128260912449999e-2
-6.789004900100000e-2 -1.670858279820000e-1 -2.644115373980000e-1 -3.577672670800000e-1
-4.448739227320000e-1 -5.233144873790000e-1 -5.905912259230000e-1 -6.442009828340000e-1
-6.817304988589999e-1 -7.009732370240000e-1 -7.000684976740001e-1 -6.776625361430000e-1
-6.330898930420000e-1 -5.665711049230000e-1 -4.794202878730000e-1 -3.742526773610000e-1
-2.551779899250000e-1 -1.279603975010000e-1 -1.199992107530000e-4 1.190559312330000e-1
2.186306519200000e-1 2.863101799630000e-1 3.089613331110000e-1 2.734099790380000e-1
1.675720543150000e-1 -1.804027737190000e-2 -2.884185247760000e-1 -6.417891332830000e-1
-1.067076256760000e0 -1.541315997630000e0 -2.027426695490000e0 -2.473016627290000e0
-2.811317005640000e0 -2.965961198640000e0 -2.863414358610000e0 -2.451687149080000e0
-1.737396675800000e0 -8.426916808510001e-1 -1.272887853940000e-1 1.016349443340000e-2
0.000000000000000e0 0.000000000000000e0 0.000000000000000e0 0.000000000000000e0
0.000000000000000e0 0.000000000000000e0 0.000000000000000e0 0.000000000000000e0
0.000000000000000e0 0.000000000000000e0 0.000000000000000e0 0.000000000000000e0
0.000000000000000e0 0.000000000000000e0 0.000000000000000e0 0.000000000000000e0
0.000000000000000e0 0.000000000000000e0 0.000000000000000e0 0.000000000000000e0
0.000000000000000e0 0.000000000000000e0 0.000000000000000e0 0.000000000000000e0
0.000000000000000e0 0.000000000000000e0 0.000000000000000e0 0.000000000000000e0
0.000000000000000e0 0.000000000000000e0 0.000000000000000e0 0.000000000000000e0
0.000000000000000e0 0.000000000000000e0 0.000000000000000e0 0.000000000000000e0
0.000000000000000e0 0.000000000000000e0 0.000000000000000e0 0.000000000000000e0
0.000000000000000e0 0.000000000000000e0 0.000000000000000e0 0.000000000000000e0
0.000000000000000e0 0.000000000000000e0 0.000000000000000e0 0.000000000000000e0
0.000000000000000e0 0.000000000000000e0 0.000000000000000e0 0.000000000000000e0
0.000000000000000e0 0.000000000000000e0 0.000000000000000e0 0.000000000000000e0
0.000000000000000e0 0.000000000000000e0 0.000000000000000e0 0.000000000000000e0
0.000000000000000e0 0.000000000000000e0 0.000000000000000e0 0.000000000000000e0
0.000000000000000e0 0.000000000000000e0 0.000000000000000e0 0.000000000000000e0
0.000000000000000e0 0.000000000000000e0 0.000000000000000e0 0.000000000000000e0
0.000000000000000e0 0.000000000000000e0 0.000000000000000e0 0.000000000000000e0
0.000000000000000e0 0.000000000000000e0 0.000000000000000e0 0.000000000000000e0
0.000000000000000e0 0.000000000000000e0 0.000000000000000e0 0.000000000000000e0
0.000000000000000e0 0.000000000000000e0 0.000000000000000e0 0.000000000000000e0
0.000000000000000e0 0.000000000000000e0 0.000000000000000e0 0.000000000000000e0
0.000000000000000e0 0.000000000000000e0 0.000000000000000e0 0.000000000000000e0
0.000000000000000e0 0.000000000000000e0 0.000000000000000e0 0.000000000000000e0
0.000000000000000e0 0.000000000000000e0 0.000000000000000e0 0.000000000000000e0
0.000000000000000e0 0.000000000000000e0 0.000000000000000e0 0.000000000000000e0
0.000000000000000e0 0.000000000000000e0 0.000000000000000e0 0.000000000000000e0
0.000000000000000e0 0.000000000000000e0 0.000000000000000e0 0.000000000000000e0
0.000000000000000e0 0.000000000000000e0 0.000000000000000e0 0.000000000000000e0
0.000000000000000e0 0.000000000000000e0 0.000000000000000e0 0.000000000000000e0
0.000000000000000e0 0.000000000000000e0 0.000000000000000e0 0.000000000000000e0
0.000000000000000e0 0.000000000000000e0 0.000000000000000e0 0.000000000000000e0
0.000000000000000e0 0.000000000000000e0 0.000000000000000e0 0.000000000000000e0
0.000000000000000e0 0.000000000000000e0 0.000000000000000e0 0.000000000000000e0
0.000000000000000e0 0.000000000000000e0 0.000000000000000e0 0.000000000000000e0
0.000000000000000e0 0.000000000000000e0 0.000000000000000e0 0.000000000000000e0
0.000000000000000e0 0.000000000000000e0 0.000000000000000e0 0.000000000000000e0
0.000000000000000e0 0.000000000000000e0 0.000000000000000e0 0.000000000000000e0
0.000000000000000e0 0.000000000000000e0 0.000000000000000e0 0.000000000000000e0
0.000000000000000e0 0.000000000000000e0 0.000000000000000e0 0.000000000000000e0
0.000000000000000e0 0.000000000000000e0 0.000000000000000e0 0.000000000000000e0
0.000000000000000e0 0.000000000000000e0 0.000000000000000e0 0.000000000000000e0
0.000000000000000e0 0.000000000000000e0 0.000000000000000e0 0.000000000000000e0
0.000000000000000e0 0.000000000000000e0 0.000000000000000e0 0.000000000000000e0
0.000000000000000e0 0.000000000000000e0 0.000000000000000e0 0.000000000000000e0
0.000000000000000e0 0.000000000000000e0 0.000000000000000e0 0.000000000000000e0
0.000000000000000e0 0.000000000000000e0 0.000000000000000e0 0.000000000000000e0
0.000000000000000e0 0.000000000000000e0 0.000000000000000e0 0.000000000000000e0
0.000000000000000e0 0.000000000000000e0 0.000000000000000e0 0.000000000000000e0
0.000000000000000e0 0.000000000000000e0 0.000000000000000e0 0.000000000000000e0
0.000000000000000e0 0.000000000000000e0 0.000000000000000e0 0.000000000000000e0
0.000000000000000e0 0.000000000000000e0 0.000000000000000e0 0.000000000000000e0
0.000000000000000e0 0.000000000000000e0 0.000000000000000e0 0.000000000000000e0
0.000000000000000e0 0.000000000000000e0 0.000000000000000e0 0.000000000000000e0
0.000000000000000e0 0.000000000000000e0 0.000000000000000e0 0.000000000000000e0
0.000000000000000e0 0.000000000000000e0 0.000000000000000e0 0.000000000000000e0
0.000000000000000e0 0.000000000000000e0 0.000000000000000e0 0.000000000000000e0
0.000000000000000e0 0.000000000000000e0 0.000000000000000e0 0.000000000000000e0
0.000000000000000e0 0.000000000000000e0 0.000000000000000e0 0.000000000000000e0
0.000000000000000e0 0.000000000000000e0 0.000000000000000e0 0.000000000000000e0
0.000000000000000e0 0.000000000000000e0 0.000000000000000e0 0.000000000000000e0
0.000000000000000e0 0.000000000000000e0 0.000000000000000e0 0.000000000000000e0
0.000000000000000e0
</PP_BETA.4>
<PP_DIJ>
1.057955350560000e0 -2.780671585490000e0 0.000000000000000e0 0.000000000000000e0
-2.780671585490000e0 -3.694871938000000e0 0.000000000000000e0 0.000000000000000e0
0.000000000000000e0 0.000000000000000e0 7.813760163440000e1 7.204305709970000e1
0.000000000000000e0 0.000000000000000e0 7.204305709970000e1 6.617370196950001e1
</PP_DIJ>
<PP_AUGMENTATION q_with_l="false" nqf="8" nqlc="3">
<PP_Q>
-4.252393294220000e-1 -2.794311703780000e-1 0.000000000000000e0 0.000000000000000e0
-2.794311703780000e-1 -1.872790091470000e-1 0.000000000000000e0 0.000000000000000e0
0.000000000000000e0 0.000000000000000e0 4.762626970530000e0 3.256700562240000e0
0.000000000000000e0 0.000000000000000e0 3.256700562240000e0 1.994248419670000e0
</PP_Q>
<!-- polinomial expansion of Q_ij at small radius -->
<PP_QFCOEF>
-1.552824360590000e1 7.695542137480000e1 -8.240245709900000e1 -5.006398387210001e2
2.351092613220001e3 -4.456374030580000e3 4.065712481650001e3 -1.458661430610000e3
0.000000000000000e0 0.000000000000000e0 0.000000000000000e0 0.000000000000000e0
0.000000000000000e0 0.000000000000000e0 0.000000000000000e0 0.000000000000000e0
0.000000000000000e0 0.000000000000000e0 0.000000000000000e0 0.000000000000000e0
0.000000000000000e0 0.000000000000000e0 0.000000000000000e0 0.000000000000000e0
-1.239066562120000e1 6.256615129640000e1 -1.219547328110000e1 -8.800258238010001e2
3.606714308390001e3 -6.705143776170001e3 6.103322125180000e3 -2.193312409010000e3
0.000000000000000e0 0.000000000000000e0 0.000000000000000e0 0.000000000000000e0
0.000000000000000e0 0.000000000000000e0 0.000000000000000e0 0.000000000000000e0
0.000000000000000e0 0.000000000000000e0 0.000000000000000e0 0.000000000000000e0
0.000000000000000e0 0.000000000000000e0 0.000000000000000e0 0.000000000000000e0
0.000000000000000e0 0.000000000000000e0 0.000000000000000e0 0.000000000000000e0
0.000000000000000e0 0.000000000000000e0 0.000000000000000e0 0.000000000000000e0
2.943977018620000e1 -2.310810315680000e2 1.857045079350000e3 -9.979019312690001e3
2.990509811010001e4 -4.911631264820001e4 4.156146765160002e4 -1.419205346880001e4
0.000000000000000e0 0.000000000000000e0 0.000000000000000e0 0.000000000000000e0
0.000000000000000e0 0.000000000000000e0 0.000000000000000e0 0.000000000000000e0
0.000000000000000e0 0.000000000000000e0 0.000000000000000e0 0.000000000000000e0
0.000000000000000e0 0.000000000000000e0 0.000000000000000e0 0.000000000000000e0
3.493499541200000e1 -2.251510548730000e2 1.436834865290000e3 -7.223546710140001e3
2.134825735180000e4 -3.495129913820000e4 2.955062100520001e4 -1.008829535140000e4
0.000000000000000e0 0.000000000000000e0 0.000000000000000e0 0.000000000000000e0
0.000000000000000e0 0.000000000000000e0 0.000000000000000e0 0.000000000000000e0
-1.239066562120000e1 6.256615129640000e1 -1.219547328110000e1 -8.800258238010001e2
3.606714308390001e3 -6.705143776170001e3 6.103322125180000e3 -2.193312409010000e3
0.000000000000000e0 0.000000000000000e0 0.000000000000000e0 0.000000000000000e0
0.000000000000000e0 0.000000000000000e0 0.000000000000000e0 0.000000000000000e0
0.000000000000000e0 0.000000000000000e0 0.000000000000000e0 0.000000000000000e0
0.000000000000000e0 0.000000000000000e0 0.000000000000000e0 0.000000000000000e0
-7.825269875750000e0 3.583195610040000e1 6.105950720400000e1 -1.040244524950000e3
3.940489471140001e3 -7.218469228720001e3 6.547149188910002e3 -2.350603399210001e3
0.000000000000000e0 0.000000000000000e0 0.000000000000000e0 0.000000000000000e0
0.000000000000000e0 0.000000000000000e0 0.000000000000000e0 0.000000000000000e0
0.000000000000000e0 0.000000000000000e0 0.000000000000000e0 0.000000000000000e0
0.000000000000000e0 0.000000000000000e0 0.000000000000000e0 0.000000000000000e0
0.000000000000000e0 0.000000000000000e0 0.000000000000000e0 0.000000000000000e0
0.000000000000000e0 0.000000000000000e0 0.000000000000000e0 0.000000000000000e0
3.655036303770000e1 -2.438584960390000e2 7.379042473770001e2 -1.875968439050000e3
4.398550687950001e3 -7.105079988080000e3 6.248606797690002e3 -2.226403206130000e3
0.000000000000000e0 0.000000000000000e0 0.000000000000000e0 0.000000000000000e0
0.000000000000000e0 0.000000000000000e0 0.000000000000000e0 0.000000000000000e0
0.000000000000000e0 0.000000000000000e0 0.000000000000000e0 0.000000000000000e0
0.000000000000000e0 0.000000000000000e0 0.000000000000000e0 0.000000000000000e0
3.810714009480000e1 -2.367168173500001e2 5.869711274150000e2 -9.691691254510001e2
1.628173372920000e3 -2.526516349670000e3 2.361200468440000e3 -8.963036907780001e2
0.000000000000000e0 0.000000000000000e0 0.000000000000000e0 0.000000000000000e0
0.000000000000000e0 0.000000000000000e0 0.000000000000000e0 0.000000000000000e0
0.000000000000000e0 0.000000000000000e0 0.000000000000000e0 0.000000000000000e0
0.000000000000000e0 0.000000000000000e0 0.000000000000000e0 0.000000000000000e0
2.943977018620000e1 -2.310810315680000e2 1.857045079350000e3 -9.979019312690001e3
2.990509811010001e4 -4.911631264820001e4 4.156146765160002e4 -1.419205346880001e4
0.000000000000000e0 0.000000000000000e0 0.000000000000000e0 0.000000000000000e0
0.000000000000000e0 0.000000000000000e0 0.000000000000000e0 0.000000000000000e0
0.000000000000000e0 0.000000000000000e0 0.000000000000000e0 0.000000000000000e0
0.000000000000000e0 0.000000000000000e0 0.000000000000000e0 0.000000000000000e0
3.655036303770000e1 -2.438584960390000e2 7.379042473770001e2 -1.875968439050000e3
4.398550687950001e3 -7.105079988080000e3 6.248606797690002e3 -2.226403206130000e3
0.000000000000000e0 0.000000000000000e0 0.000000000000000e0 0.000000000000000e0
0.000000000000000e0 0.000000000000000e0 0.000000000000000e0 0.000000000000000e0
1.016514993740000e2 -3.984661326270000e2 9.811271873700001e2 -3.129917347290001e3
8.953751420610002e3 -1.527614296230000e4 1.343105946540001e4 -4.724223042260000e3
0.000000000000000e0 0.000000000000000e0 0.000000000000000e0 0.000000000000000e0
0.000000000000000e0 0.000000000000000e0 0.000000000000000e0 0.000000000000000e0
2.176586954380000e2 4.649730226960001e3 -6.531112546110001e4 3.495211186750000e5
-9.811376657910003e5 1.517071023930001e6 -1.222188684800001e6 4.011465890280001e5
8.961562337590001e1 -4.308842996670001e2 1.424546975880000e3 -5.435418951800002e3
1.608192153130001e4 -2.763691059960001e4 2.442341082410000e4 -8.628368085170001e3
0.000000000000000e0 0.000000000000000e0 0.000000000000000e0 0.000000000000000e0
0.000000000000000e0 0.000000000000000e0 0.000000000000000e0 0.000000000000000e0
1.395757009860000e2 4.190602358040000e3 -5.668662389130001e4 3.018763554480001e5
-8.459054132020002e5 1.306333426050000e6 -1.051265103090000e6 3.447114906170000e5
0.000000000000000e0 0.000000000000000e0 0.000000000000000e0 0.000000000000000e0
0.000000000000000e0 0.000000000000000e0 0.000000000000000e0 0.000000000000000e0
3.493499541200000e1 -2.251510548730000e2 1.436834865290000e3 -7.223546710140001e3
2.134825735180000e4 -3.495129913820000e4 2.955062100520001e4 -1.008829535140000e4
0.000000000000000e0 0.000000000000000e0 0.000000000000000e0 0.000000000000000e0
0.000000000000000e0 0.000000000000000e0 0.000000000000000e0 0.000000000000000e0
0.000000000000000e0 0.000000000000000e0 0.000000000000000e0 0.000000000000000e0
0.000000000000000e0 0.000000000000000e0 0.000000000000000e0 0.000000000000000e0
3.810714009480000e1 -2.367168173500001e2 5.869711274150000e2 -9.691691254510001e2
1.628173372920000e3 -2.526516349670000e3 2.361200468440000e3 -8.963036907780001e2
0.000000000000000e0 0.000000000000000e0 0.000000000000000e0 0.000000000000000e0
0.000000000000000e0 0.000000000000000e0 0.000000000000000e0 0.000000000000000e0
8.961562337590001e1 -4.308842996670001e2 1.424546975880000e3 -5.435418951800002e3
1.608192153130001e4 -2.763691059960001e4 2.442341082410000e4 -8.628368085170001e3
0.000000000000000e0 0.000000000000000e0 0.000000000000000e0 0.000000000000000e0
0.000000000000000e0 0.000000000000000e0 0.000000000000000e0 0.000000000000000e0
1.395757009860000e2 4.190602358040000e3 -5.668662389130001e4 3.018763554480001e5
-8.459054132020002e5 1.306333426050000e6 -1.051265103090000e6 3.447114906170000e5
7.963428083340000e1 -4.591405055810000e2 1.805130118020000e3 -7.420331263700000e3
2.222944549580001e4 -3.830321366010001e4 3.391053443440000e4 -1.199811481360000e4
0.000000000000000e0 0.000000000000000e0 0.000000000000000e0 0.000000000000000e0
0.000000000000000e0 0.000000000000000e0 0.000000000000000e0 0.000000000000000e0
7.426594536620001e1 3.807717390890000e3 -4.948845262600001e4 2.621037498830001e5
-7.329951439940003e5 1.130345929440001e6 -9.084992448770002e5 2.975652780830000e5
</PP_QFCOEF>
<PP_RINNER>
8.000000000000000e-1 8.000000000000000e-1 8.000000000000000e-1
</PP_RINNER>
<PP_QIJ.1.1 first_index="1" second_index="1" composite_index="1">
0.000000000000000e0 -5.689312243359998e-10 -2.314791473900000e-9 -5.297943195410001e-9
-9.581168250050000e-9 -1.522975711330000e-8 -2.231160124930000e-8 -3.089728877010001e-8
-4.106020349609999e-8 -5.287662753559998e-8 -6.642584750660001e-8 -8.179026452910001e-8
-9.905550811880000e-8 -1.183105541190000e-7 -1.396478468130000e-7 -1.631634253580000e-7
-1.889570547029999e-7 -2.171323611270000e-7 -2.477969725890000e-7 -2.810626640210000e-7
-3.170455077730000e-7 -3.558660293579999e-7 -3.976493687100000e-7 -4.425254471200000e-7
-4.906291400719999e-7 -5.421004561749999e-7 -5.970847223889999e-7 -6.557327757999999e-7
-7.182011621290001e-7 -7.846523412480001e-7 -8.552548999179999e-7 -9.301837720230001e-7
-1.009620466540000e-6 -1.093753303540000e-6 -1.182777658460000e-6 -1.276896214990000e-6
-1.376319226820000e-6 -1.481264788580000e-6 -1.591959116320000e-6 -1.708636837770000e-6
-1.831541292860000e-6 -1.960924844740000e-6 -2.097049201680000e-6 -2.240185750310000e-6
-2.390615900500000e-6 -2.548631442330000e-6 -2.714534915560000e-6 -2.888639992049999e-6
-3.071271871530000e-6 -3.262767691280000e-6 -3.463476950090000e-6 -3.673761947040000e-6
-3.893998235710000e-6 -4.124575094130001e-6 -4.365896011300000e-6 -4.618379190619999e-6
-4.882458070890000e-6 -5.158581865620000e-6 -5.447216121029999e-6 -5.748843293639999e-6
-6.063963347950001e-6 -6.393094375010000e-6 -6.736773232580000e-6 -7.095556207589999e-6
-7.470019701679998e-6 -7.860760940750000e-6 -8.268398709100000e-6 -8.693574109290001e-6
-9.136951348340000e-6 -9.599218551480000e-6 -1.008108860410000e-5 -1.058330002310000e-5
-1.110661785860000e-5 -1.165183462690000e-5 -1.221977127620000e-5 -1.281127818570000e-5
-1.342723619910000e-5 -1.406855769530000e-5 -1.473618769480000e-5 -1.543110500560000e-5
-1.615432340840000e-5 -1.690689288370000e-5 -1.768990088070000e-5 -1.850447363080000e-5
-1.935177750670000e-5 -2.023302042880000e-5 -2.114945332000000e-5 -2.210237161170000e-5
-2.309311680170000e-5 -2.412307806610000e-5 -2.519369392760000e-5 -2.630645398120000e-5
-2.746290068050000e-5 -2.866463118500000e-5 -2.991329927250000e-5 -3.121061731730000e-5
-3.255835833710000e-5 -3.395835811110000e-5 -3.541251737130000e-5 -3.692280407010000e-5
-3.849125572620000e-5 -4.011998185200000e-5 -4.181116646540000e-5 -4.356707068810000e-5
-4.539003543440001e-5 -4.728248419350000e-5 -4.924692590679999e-5 -5.128595794680001e-5
-5.340226919779999e-5 -5.559864324410000e-5 -5.787796166770000e-5 -6.024320746160000e-5
-6.269746855989999e-5 -6.524394149100000e-5 -6.788593515690000e-5 -7.062687474350000e-5
-7.347030576620000e-5 -7.641989825539999e-5 -7.947945108700003e-5 -8.265289646250000e-5
-8.594430454459999e-5 -8.935788825220001e-5 -9.289800822269999e-5 -9.656917794440000e-5
-1.003760690670000e-4 -1.043235168980000e-4 -1.084165260820000e-4 -1.126602764870000e-4
-1.170601292850000e-4 -1.216216332460000e-4 -1.263505312520000e-4 -1.312527670320000e-4
-1.363344921330000e-4 -1.416020731290000e-4 -1.470620990790000e-4 -1.527213892470000e-4
-1.585870010850000e-4 -1.646662384910000e-4 -1.709666603520000e-4 -1.774960893870000e-4
-1.842626212890000e-4 -1.912746341860000e-4 -1.985407984250000e-4 -2.060700866990000e-4
-2.138717845210000e-4 -2.219555010570000e-4 -2.303311803320000e-4 -2.390091128310000e-4
-2.479999474900000e-4 -2.573147041040000e-4 -2.669647861640000e-4 -2.769619941370000e-4
-2.873185392000000e-4 -2.980470574490000e-4 -3.091606246020000e-4 -3.206727711989999e-4
-3.325974983340000e-4 -3.449492939270000e-4 -3.577431495500000e-4 -3.709945778420000e-4
-3.847196305160000e-4 -3.989349169880001e-4 -4.136576236500000e-4 -4.289055337970000e-4
-4.446970482530000e-4 -4.610512066900000e-4 -4.779877096960000e-4 -4.955269415909999e-4
-5.136899940270000e-4 -5.324986904080000e-4 -5.519756111360000e-4 -5.721441197349999e-4
-5.930283898660001e-4 -6.146534332700000e-4 -6.370451286700001e-4 -6.602302516680001e-4
-6.842365056620001e-4 -7.090925538220000e-4 -7.348280521740000e-4 -7.614736838010000e-4
-7.890611942280000e-4 -8.176234280120001e-4 -8.471943665910000e-4 -8.778091674200001e-4
-9.095042044540001e-4 -9.423171100100001e-4 -9.762868180630001e-4 -1.011453609020000e-3
-1.047859156030000e-3 -1.085546572850000e-3 -1.124560463400000e-3 -1.164946972940000e-3
-1.206753841050000e-3 -1.250030456360000e-3 -1.294827913210000e-3 -1.341199070200000e-3
-1.389198610720000e-3 -1.438883105580000e-3 -1.490311077730000e-3 -1.543543069220000e-3
-1.598641710400000e-3 -1.655671791460000e-3 -1.714700336450000e-3 -1.775796679780000e-3
-1.839032545270000e-3 -1.904482127960000e-3 -1.972222178600000e-3 -2.042332091100000e-3
-2.114893992800000e-3 -2.189992837930000e-3 -2.267716504090000e-3 -2.348155892120000e-3
-2.431405029190000e-3 -2.517561175450000e-3 -2.606724934250000e-3 -2.699000366060000e-3
-2.794495106160000e-3 -2.893320486370000e-3 -2.995591660770000e-3 -3.101427735650000e-3
-3.210951903810000e-3 -3.324291583380000e-3 -3.441578561130000e-3 -3.562949140730000e-3
-3.688544295770000e-3 -3.818509827970000e-3 -3.952996530610000e-3 -4.092160357310000e-3
-4.236162596430000e-3 -4.385170051260000e-3 -4.539355226060000e-3 -4.698896518250001e-3
-4.863978416960000e-3 -5.034791707960000e-3 -5.211533685430001e-3 -5.394408370510000e-3
-5.583626737060000e-3 -5.779406944690000e-3 -5.981974579350000e-3 -6.191562901739999e-3
-6.408413103669998e-3 -6.632774572710000e-3 -6.864905165310001e-3 -7.105071488630000e-3
-7.353549191420000e-3 -7.610623264119999e-3 -7.876588348410001e-3 -8.151749056670001e-3
-8.436420301350001e-3 -8.730927634809998e-3 -9.035607599670001e-3 -9.350808090119999e-3
-9.676888724459999e-3 -1.001422122900000e-2 -1.036318983420000e-2 -1.072419168190000e-2
-1.109763724640000e-2 -1.148395076710000e-2 -1.188357069490000e-2 -1.229695015110000e-2
-1.272455740130000e-2 -1.316687634200000e-2 -1.362440700240000e-2 -1.409766606050000e-2
-1.458718737380000e-2 -1.509352252650000e-2 -1.561724139050000e-2 -1.615893270420000e-2
-1.671920466600000e-2 -1.729868554520000e-2 -1.789802430950000e-2 -1.851789126950000e-2
-1.915897874050000e-2 -1.982200172230000e-2 -2.050769859640000e-2 -2.121683184180000e-2
-2.195018876880000e-2 -2.270858227120000e-2 -2.349285159800000e-2 -2.430386314230000e-2
-2.514251125120000e-2 -2.600971905300000e-2 -2.690643930440000e-2 -2.783365525620000e-2
-2.879238153880000e-2 -2.978366506550000e-2 -3.080858595550000e-2 -3.186825847520000e-2
-3.296383199760000e-2 -3.409649197950000e-2 -3.526746095709999e-2 -3.647799955750000e-2
-3.772940752710000e-2 -3.902302477620000e-2 -4.036023243730000e-2 -4.174245393880000e-2
-4.317115609030000e-2 -4.464785018050000e-2 -4.617409308490000e-2 -4.775148838290000e-2
-4.938168748130000e-2 -5.106639074379999e-2 -5.280734862300001e-2 -5.460636279380000e-2
-5.646528728470001e-2 -5.838602960490000e-2 -6.037055186330001e-2 -6.242087187690000e-2
-6.453906426480000e-2 -6.672726152230001e-2 -6.898765507309999e-2 -7.132249629230001e-2
-7.373409749750000e-2 -7.622483289920000e-2 -7.879713950790000e-2 -8.145351798760000e-2
-8.419653345160000e-2 -8.702881619030000e-2 -8.995306232400001e-2 -9.297203437110001e-2
-9.608856172139999e-2 -9.930554100460000e-2 -1.026259363420000e-1 -1.060527794680000e-1
-1.095891697140000e-1 -1.132382738280000e-1 -1.170033256300000e-1 -1.208876254750000e-1
-1.248945395100000e-1 -1.290274987140000e-1 -1.332899976800000e-1 -1.376855931480000e-1
-1.422179022310000e-1 -1.468906003470000e-1 -1.517074187980000e-1 -1.566721419910000e-1
-1.617886042550000e-1 -1.670606862440000e-1 -1.724923108690000e-1 -1.780874387390000e-1
-1.838500630740000e-1 -1.897842040440000e-1 -1.958939024970000e-1 -2.021832130320000e-1
-2.086561963720000e-1 -2.153169109910000e-1 -2.221694039330000e-1 -2.292177007940000e-1
-2.364657947850000e-1 -2.439176348360000e-1 -2.515771126810000e-1 -2.594480488500000e-1
-2.675341775170000e-1 -2.758391301360000e-1 -2.843664177870000e-1 -2.931194121780000e-1
-3.021013252190000e-1 -3.113151871080000e-1 -3.207638228420000e-1 -3.304498271030000e-1
-3.403755374180000e-1 -3.505430055510000e-1 -3.609539670360000e-1 -3.716098087960000e-1
-3.825115347860000e-1 -3.936597295870000e-1 -4.050545199220000e-1 -4.166955340280000e-1
-4.285818588590001e-1 -4.407119950969999e-1 -4.530838099430000e-1 -4.656944877150000e-1
-4.785404782470001e-1 -4.916174431460000e-1 -5.049201999639999e-1 -5.184426643700000e-1
-5.321777904450000e-1 -5.461175092410000e-1 -5.602526658059999e-1 -5.745729548860000e-1
-5.890668555820000e-1 -6.037215652880001e-1 -6.185229332810001e-1 -6.334553943850000e-1
-6.485019032280000e-1 -6.636438696240000e-1 -6.788610957360000e-1 -6.941317157080000e-1
-7.094321385610000e-1 -7.247369952010000e-1 -7.400190904870000e-1 -7.552493613850000e-1
-7.703968422760000e-1 -7.854286386280000e-1 -8.003099102200000e-1 -8.150038652459999e-1
-8.294717666049999e-1 -8.436729517520000e-1 -8.575648674480000e-1 -8.711031207800000e-1
-8.842415477020001e-1 -8.969323003080000e-1 -9.091259538779999e-1 -9.207716345769999e-1
-9.318171684150000e-1 -9.422092517839999e-1 -9.518936435160001e-1 -9.608153779520000e-1
-9.689189979809999e-1 -9.761488064350001e-1 -9.824491335310000e-1 -9.877646173630000e-1
-9.920404936400001e-1 -9.952228901040000e-1 -9.972591202820000e-1 -9.980979704930000e-1
-9.976899734640000e-1 -9.959876614630000e-1 -9.929457918000001e-1 -9.885215377660000e-1
-9.826746389800000e-1 -9.753675065780000e-1 -9.665652811099999e-1 -9.562358444599999e-1
-9.443497918100000e-1 -9.308803758800000e-1 -9.158034434370000e-1 -8.990973936570001e-1
-8.807431992209999e-1 -8.607245440260000e-1 -8.390281457499999e-1 -8.156443465839999e-1
-7.905680702940000e-1 -7.638002568459999e-1 -7.353498948910000e-1 -7.052367745490001e-1
-6.734950739530000e-1 -6.401778679850000e-1 -6.053625999020000e-1 -5.691574787780000e-1
-5.317086491170000e-1 -4.932078149010001e-1 -4.538997806849999e-1 -4.140890921490000e-1
-3.741446194900000e-1 -3.345005431940000e-1 -2.956518082060000e-1 -2.581417795770000e-1
-2.225396853670000e-1 -1.894056813180000e-1 -1.592423559580000e-1 -1.324337461430000e-1
-1.091772669040000e-1 -8.942160495270000e-2 -7.283640869200001e-2 -5.886021323090000e-2
-4.690496316980000e-2 -3.668252088900000e-2 -2.807740094160000e-2 -2.096606283820000e-2
-1.521234948850000e-2 -1.067021349360000e-2 -7.186886936710001e-3 -4.606482853150000e-3
-2.773971757240000e-3 -1.539446431320000e-3 -7.625182246829999e-4 -3.166235581630001e-4
-9.292288245089999e-5 -3.385931325100000e-6 1.743025463700000e-5 1.243828682820000e-5
4.371845936900000e-6 6.121735035009999e-7 2.071505273440000e-8 0.000000000000000e0
0.000000000000000e0 0.000000000000000e0 0.000000000000000e0 0.000000000000000e0
0.000000000000000e0 0.000000000000000e0 0.000000000000000e0 0.000000000000000e0
0.000000000000000e0 0.000000000000000e0 0.000000000000000e0 0.000000000000000e0
0.000000000000000e0 0.000000000000000e0 0.000000000000000e0 0.000000000000000e0
0.000000000000000e0 0.000000000000000e0 0.000000000000000e0 0.000000000000000e0
0.000000000000000e0 0.000000000000000e0 0.000000000000000e0 0.000000000000000e0
0.000000000000000e0 0.000000000000000e0 0.000000000000000e0 0.000000000000000e0
0.000000000000000e0 0.000000000000000e0 0.000000000000000e0 0.000000000000000e0
0.000000000000000e0 0.000000000000000e0 0.000000000000000e0 0.000000000000000e0
0.000000000000000e0 0.000000000000000e0 0.000000000000000e0 0.000000000000000e0
0.000000000000000e0 0.000000000000000e0 0.000000000000000e0 0.000000000000000e0
0.000000000000000e0 0.000000000000000e0 0.000000000000000e0 0.000000000000000e0
0.000000000000000e0 0.000000000000000e0 0.000000000000000e0 0.000000000000000e0
0.000000000000000e0 0.000000000000000e0 0.000000000000000e0 0.000000000000000e0
0.000000000000000e0 0.000000000000000e0 0.000000000000000e0 0.000000000000000e0
0.000000000000000e0 0.000000000000000e0 0.000000000000000e0 0.000000000000000e0
0.000000000000000e0 0.000000000000000e0 0.000000000000000e0 0.000000000000000e0
0.000000000000000e0 0.000000000000000e0 0.000000000000000e0 0.000000000000000e0
0.000000000000000e0 0.000000000000000e0 0.000000000000000e0 0.000000000000000e0
0.000000000000000e0 0.000000000000000e0 0.000000000000000e0 0.000000000000000e0
0.000000000000000e0 0.000000000000000e0 0.000000000000000e0 0.000000000000000e0
0.000000000000000e0 0.000000000000000e0 0.000000000000000e0 0.000000000000000e0
0.000000000000000e0 0.000000000000000e0 0.000000000000000e0 0.000000000000000e0
0.000000000000000e0 0.000000000000000e0 0.000000000000000e0 0.000000000000000e0
0.000000000000000e0 0.000000000000000e0 0.000000000000000e0 0.000000000000000e0
0.000000000000000e0 0.000000000000000e0 0.000000000000000e0 0.000000000000000e0
0.000000000000000e0 0.000000000000000e0 0.000000000000000e0 0.000000000000000e0
0.000000000000000e0 0.000000000000000e0 0.000000000000000e0 0.000000000000000e0
0.000000000000000e0 0.000000000000000e0 0.000000000000000e0 0.000000000000000e0
0.000000000000000e0 0.000000000000000e0 0.000000000000000e0 0.000000000000000e0
0.000000000000000e0 0.000000000000000e0 0.000000000000000e0 0.000000000000000e0
0.000000000000000e0 0.000000000000000e0 0.000000000000000e0 0.000000000000000e0
0.000000000000000e0 0.000000000000000e0 0.000000000000000e0 0.000000000000000e0
0.000000000000000e0 0.000000000000000e0 0.000000000000000e0 0.000000000000000e0
0.000000000000000e0 0.000000000000000e0 0.000000000000000e0 0.000000000000000e0
0.000000000000000e0 0.000000000000000e0 0.000000000000000e0 0.000000000000000e0
0.000000000000000e0 0.000000000000000e0 0.000000000000000e0 0.000000000000000e0
0.000000000000000e0 0.000000000000000e0 0.000000000000000e0 0.000000000000000e0
0.000000000000000e0 0.000000000000000e0 0.000000000000000e0 0.000000000000000e0
0.000000000000000e0 0.000000000000000e0 0.000000000000000e0 0.000000000000000e0
0.000000000000000e0 0.000000000000000e0 0.000000000000000e0 0.000000000000000e0
0.000000000000000e0 0.000000000000000e0 0.000000000000000e0 0.000000000000000e0
0.000000000000000e0 0.000000000000000e0 0.000000000000000e0 0.000000000000000e0
0.000000000000000e0 0.000000000000000e0 0.000000000000000e0 0.000000000000000e0
0.000000000000000e0 0.000000000000000e0 0.000000000000000e0 0.000000000000000e0
0.000000000000000e0 0.000000000000000e0 0.000000000000000e0 0.000000000000000e0
0.000000000000000e0 0.000000000000000e0 0.000000000000000e0 0.000000000000000e0
0.000000000000000e0 0.000000000000000e0 0.000000000000000e0 0.000000000000000e0
0.000000000000000e0 0.000000000000000e0 0.000000000000000e0 0.000000000000000e0
0.000000000000000e0 0.000000000000000e0 0.000000000000000e0 0.000000000000000e0
0.000000000000000e0 0.000000000000000e0 0.000000000000000e0 0.000000000000000e0
0.000000000000000e0 0.000000000000000e0 0.000000000000000e0 0.000000000000000e0
0.000000000000000e0 0.000000000000000e0 0.000000000000000e0 0.000000000000000e0
0.000000000000000e0 0.000000000000000e0 0.000000000000000e0 0.000000000000000e0
0.000000000000000e0 0.000000000000000e0 0.000000000000000e0 0.000000000000000e0
0.000000000000000e0 0.000000000000000e0 0.000000000000000e0 0.000000000000000e0
0.000000000000000e0 0.000000000000000e0 0.000000000000000e0 0.000000000000000e0
0.000000000000000e0 0.000000000000000e0 0.000000000000000e0 0.000000000000000e0
0.000000000000000e0 0.000000000000000e0 0.000000000000000e0 0.000000000000000e0
0.000000000000000e0 0.000000000000000e0 0.000000000000000e0 0.000000000000000e0
0.000000000000000e0 0.000000000000000e0 0.000000000000000e0 0.000000000000000e0
0.000000000000000e0 0.000000000000000e0 0.000000000000000e0 0.000000000000000e0
0.000000000000000e0 0.000000000000000e0 0.000000000000000e0 0.000000000000000e0
0.000000000000000e0
</PP_QIJ.1.1>
<PP_QIJ.1.2 first_index="1" second_index="2" composite_index="2">
0.000000000000000e0 -4.539751398199999e-10 -1.847073491590000e-9 -4.227460895000000e-9
-7.645233746479998e-9 -1.215249017560000e-8 -1.780340375450000e-8 -2.465429982899999e-8
-3.276373456280001e-8 -4.219257679009999e-8 -5.300409277529999e-8 -6.526403397990000e-8
-7.904072794380001e-8 -9.440517238800000e-8 -1.114311326530000e-7 -1.301952425870000e-7
-1.507771090100000e-7 -1.732594198680000e-7 -1.977280562190000e-7 -2.242722081750000e-7
-2.529844949430000e-7 -2.839610891060000e-7 -3.173018452940000e-7 -3.531104333899999e-7
-3.914944764469999e-7 -4.325656934580000e-7 -4.764400471649999e-7 -5.232378970760000e-7
-5.730841578720000e-7 -6.261084633909999e-7 -6.824453363840000e-7 -7.422343642469999e-7
-8.056203809330000e-7 -8.727536552580000e-7 -9.437900858290000e-7 -1.018891402820000e-6
-1.098225376850000e-6 -1.181966035150000e-6 -1.270293885390000e-6 -1.363396147300000e-6
-1.461466992440000e-6 -1.564707792380000e-6 -1.673327375590000e-6 -1.787542293320000e-6
-1.907577094780000e-6 -2.033664612020000e-6 -2.166046254730000e-6 -2.304972315370000e-6
-2.450702285000000e-6 -2.603505180160000e-6 -2.763659881190001e-6 -2.931455482310001e-6
-3.107191654100000e-6 -3.291179018489999e-6 -3.483739536910000e-6 -3.685206912090000e-6
-3.895927003730000e-6 -4.116258258839999e-6 -4.346572157030000e-6 -4.587253671350000e-6
-4.838701745220001e-6 -5.101329786040000e-6 -5.375566175950000e-6 -5.661854800470000e-6
-5.960655595510000e-6 -6.272445113570000e-6 -6.597717109510000e-6 -6.936983146859999e-6
-7.290773225239999e-6 -7.659636429610000e-6 -8.044141602099998e-6 -8.444878037370000e-6
-8.862456202020002e-6 -9.297508479139999e-6 -9.750689938779999e-6 -1.022267913520000e-5
-1.071417893180000e-5 -1.122591735500000e-5 -1.175864847740000e-5 -1.231315333220000e-5
-1.289024085870000e-5 -1.349074888160000e-5 -1.411554512330000e-5 -1.476552825230000e-5
-1.544162896770000e-5 -1.614481112070000e-5 -1.687607287670000e-5 -1.763644791569999e-5
-1.842700667620000e-5 -1.924885764150000e-5 -2.010314867020000e-5 -2.099106837370000e-5
-2.191384754160000e-5 -2.287276061550001e-5 -2.386912721510000e-5 -2.490431371650001e-5
-2.597973488600000e-5 -2.709685556960000e-5 -2.825719244170000e-5 -2.946231581490000e-5
-3.071385151130000e-5 -3.201348279990000e-5 -3.336295240030001e-5 -3.476406455670000e-5
-3.621868718290000e-5 -3.772875408210000e-5 -3.929626724389999e-5 -4.092329922010000e-5
-4.261199558340000e-5 -4.436457747140000e-5 -4.618334421800000e-5 -4.807067607660001e-5
-5.002903703740000e-5 -5.206097774200000e-5 -5.416913849939999e-5 -5.635625240580000e-5
-5.862514857280000e-5 -6.097875546739999e-5 -6.342010436680000e-5 -6.595233293420001e-5
-6.857868891670003e-5 -7.130253397219999e-5 -7.412734762800000e-5 -7.705673137700000e-5
-8.009441291519998e-5 -8.324425052510001e-5 -8.651023761190000e-5 -8.989650739549999e-5
-9.340733776540000e-5 -9.704715630229998e-5 -1.008205454750000e-4 -1.047322480140000e-4
-1.087871724760000e-4 -1.129903989930000e-4 -1.173471852280000e-4 -1.218629725290000e-4
-1.265433923020000e-4 -1.313942726020000e-4 -1.364216449440000e-4 -1.416317513670000e-4
-1.470310517190000e-4 -1.526262312130000e-4 -1.584242082340000e-4 -1.644321424160000e-4
-1.706574429980000e-4 -1.771077774720000e-4 -1.837910805250000e-4 -1.907155632910000e-4
-1.978897229190000e-4 -2.053223524780000e-4 -2.130225511970000e-4 -2.209997350600000e-4
-2.292636477650000e-4 -2.378243720620000e-4 -2.466923414850000e-4 -2.558783524780000e-4
-2.653935769500000e-4 -2.752495752540000e-4 -2.854583096200000e-4 -2.960321580400000e-4
-3.069839286450000e-4 -3.183268745620000e-4 -3.300747092940000e-4 -3.422416226230001e-4
-3.548422970580000e-4 -3.678919248540000e-4 -3.814062256170001e-4 -3.954014645010000e-4
-4.098944710490001e-4 -4.249026586679999e-4 -4.404440447770000e-4 -4.565372716480000e-4
-4.732016279580000e-4 -4.904570710870000e-4 -5.083242501780000e-4 -5.268245299830000e-4
-5.459800155380000e-4 -5.658135776720002e-4 -5.863488793990000e-4 -6.076104032099999e-4
-6.296234792980000e-4 -6.524143147579999e-4 -6.760100237740001e-4 -7.004386588500000e-4
-7.257292431039999e-4 -7.519118036649999e-4 -7.790174062159999e-4 -8.070781907150000e-4
-8.361274083329999e-4 -8.661994596580001e-4 -8.973299342039999e-4 -9.295556512570000e-4
-9.629147021280000e-4 -9.974464938349998e-4 -1.033191794280000e-3 -1.070192778960000e-3
-1.108493079260000e-3 -1.148137832420000e-3 -1.189173733160000e-3 -1.231649087080000e-3
-1.275613865860000e-3 -1.321119764360000e-3 -1.368220259650000e-3 -1.416970671970000e-3
-1.467428227910000e-3 -1.519652125550000e-3 -1.573703601900000e-3 -1.629646002660000e-3
-1.687544854200000e-3 -1.747467938120000e-3 -1.809485368200000e-3 -1.873669670020000e-3
-1.940095863250000e-3 -2.008841546630000e-3 -2.079986985950000e-3 -2.153615204830000e-3
-2.229812078630000e-3 -2.308666431510000e-3 -2.390270136660000e-3 -2.474718220010000e-3
-2.562108967249999e-3 -2.652544034500000e-3 -2.746128562700000e-3 -2.842971295720000e-3
-2.943184702420000e-3 -3.046885102790000e-3 -3.154192798230000e-3 -3.265232206130000e-3
-3.380131998940000e-3 -3.499025247740000e-3 -3.622049570640000e-3 -3.749347285950000e-3
-3.881065570400000e-3 -4.017356622599999e-3 -4.158377831699999e-3 -4.304291951720000e-3
-4.455267281360000e-3 -4.611477849789999e-3 -4.773103608330000e-3 -4.940330628440001e-3
-5.113351305990000e-3 -5.292364572090000e-3 -5.477576110730000e-3 -5.669198583299999e-3
-5.867451860320000e-3 -6.072563260460000e-3 -6.284767797140001e-3 -6.504308432960000e-3
-6.731436341980000e-3 -6.966411180360000e-3 -7.209501365350000e-3 -7.460984362910001e-3
-7.721146984320000e-3 -7.990285691830000e-3 -8.268706913670000e-3 -8.556727368730000e-3
-8.854674401039999e-3 -9.162886324300000e-3 -9.481712776789999e-3 -9.811515086890001e-3
-1.015266664930000e-2 -1.050555331270000e-2 -1.087057377790000e-2 -1.124814000880000e-2
-1.163867765410000e-2 -1.204262648140000e-2 -1.246044082410000e-2 -1.289259004010000e-2
-1.333955898350000e-2 -1.380184848980000e-2 -1.427997587360000e-2 -1.477447544030000e-2
-1.528589901090000e-2 -1.581481646110000e-2 -1.636181627430000e-2 -1.692750610860000e-2
-1.751251337820000e-2 -1.811748584910000e-2 -1.874309224960000e-2 -1.939002289530000e-2
-2.005899032870000e-2 -2.075072997360000e-2 -2.146600080410000e-2 -2.220558602840000e-2
-2.297029378690000e-2 -2.376095786510000e-2 -2.457843842050000e-2 -2.542362272340000e-2
-2.629742591230000e-2 -2.720079176140000e-2 -2.813469346200000e-2 -2.910013441650000e-2
-3.009814904330000e-2 -3.112980359460000e-2 -3.219619698300000e-2 -3.329846161870000e-2
-3.443776425560000e-2 -3.561530684400000e-2 -3.683232739060000e-2 -3.809010082270000e-2
-3.938993985660000e-2 -4.073319586660000e-2 -4.212125975539999e-2 -4.355556282039999e-2
-4.503757761700000e-2 -4.656881881399999e-2 -4.815084403900000e-2 -4.978525471189999e-2
-5.147369686099999e-2 -5.321786191980000e-2 -5.501948750010000e-2 -5.688035813669999e-2
-5.880230599920000e-2 -6.078721156649999e-2 -6.283700425690000e-2 -6.495366300959999e-2
-6.713921680930000e-2 -6.939574514890000e-2 -7.172537842060001e-2 -7.413029822840000e-2
-7.661273761329999e-2 -7.917498118089999e-2 -8.181936512090001e-2 -8.454827710880000e-2
-8.736415607680000e-2 -9.026949184019999e-2 -9.326682456840000e-2 -9.635874408210000e-2
-9.954788896440000e-2 -1.028369454660000e-1 -1.062286461870000e-1 -1.097257685200000e-1
-1.133311328240000e-1 -1.170476003200000e-1 -1.208780706750000e-1 -1.248254792500000e-1
-1.288927939930000e-1 -1.330830119400000e-1 -1.373991552960000e-1 -1.418442670730000e-1
-1.464214062330000e-1 -1.511336423220000e-1 -1.559840495370000e-1 -1.609757002040000e-1
-1.661116576130000e-1 -1.713949681730000e-1 -1.768286528330000e-1 -1.824156977350000e-1
-1.881590440350000e-1 -1.940615768470000e-1 -2.001261132520000e-1 -2.063553893220000e-1
-2.127520460950000e-1 -2.193186144430000e-1 -2.260574987760000e-1 -2.329709595170000e-1
-2.400610942810000e-1 -2.473298177050000e-1 -2.547788398560000e-1 -2.624096431680000e-1
-2.702234578220000e-1 -2.782212355410000e-1 -2.864036217220000e-1 -2.947709258570000e-1
-3.033230902020000e-1 -3.120596566430000e-1 -3.209797317410000e-1 -3.300819499070000e-1
-3.393644347250000e-1 -3.488247583930000e-1 -3.584598993250000e-1 -3.682661979270000e-1
-3.782393106110000e-1 -3.883741621310000e-1 -3.986648963330000e-1 -4.091048254630000e-1
-4.196863782070000e-1 -4.304010466630000e-1 -4.412393324960000e-1 -4.521906925890001e-1
-4.632434845130000e-1 -4.743849122480000e-1 -4.856009726000000e-1 -4.968764028530000e-1
-5.081946302640000e-1 -5.195377240480000e-1 -5.308863506380001e-1 -5.422197330119999e-1
-5.535156150200001e-1 -5.647502316930000e-1 -5.758982865890000e-1 -5.869329373370000e-1
-5.978257905720000e-1 -6.085469075420001e-1 -6.190648216920000e-1 -6.293465695750000e-1
-6.393577364350000e-1 -6.490625177860000e-1 -6.584237982659999e-1 -6.674032489260000e-1
-6.759614439910000e-1 -6.840579979050000e-1 -6.916517232209999e-1 -6.987008095500000e-1
-7.051630233340001e-1 -7.109959277510000e-1 -7.161571213720000e-1 -7.206044935580000e-1
-7.242964937140000e-1 -7.271924106510000e-1 -7.292526572710000e-1 -7.304390547740000e-1
-7.307151094300000e-1 -7.300462738559999e-1 -7.284001837000000e-1 -7.257468596310001e-1
-7.220588638670000e-1 -7.173114000100000e-1 -7.114823450780000e-1 -7.045522033160000e-1
-6.965039729600000e-1 -6.873229197780000e-1 -6.769962552520000e-1 -6.655127228840000e-1
-6.528621037300000e-1 -6.390346620190001e-1 -6.240205639800001e-1 -6.078093178510001e-1
-5.903893005320000e-1 -5.717474562940001e-1 -5.518692748170000e-1 -5.307391787200000e-1
-5.083414730409999e-1 -4.846620285570000e-1 -4.596908840190000e-1 -4.334259547339999e-1
-4.058780204230000e-1 -3.770771260920000e-1 -3.470804562500000e-1 -3.159816238920000e-1
-2.839211385440000e-1 -2.510975693840000e-1 -2.177785885640000e-1 -1.843106596750000e-1
-1.511256306470000e-1 -1.187419220150000e-1 -8.775742598440001e-2 -5.883075805520001e-2
-3.264732419950000e-2 -9.867105858290001e-3 8.947358261579998e-3 2.342078837460000e-2
3.346405404260000e-2 3.936163404220000e-2 4.180752097829999e-2 4.181791204820000e-2
4.040051188040001e-2 3.804236710490000e-2 3.493528550560000e-2 3.126936603860000e-2
2.723970162090000e-2 2.304087038950000e-2 1.886043834610000e-2 1.487159297940000e-2
1.122513538980000e-2 8.041298084130000e-3 5.402069810870000e-3 3.345052549230000e-3
1.860146008990000e-3 8.906445560480002e-4 3.403409024900000e-4 8.785875359560000e-5
8.156046406230001e-6 -1.612436514540000e-6 3.969353040430001e-8 0.000000000000000e0
0.000000000000000e0 0.000000000000000e0 0.000000000000000e0 0.000000000000000e0
0.000000000000000e0 0.000000000000000e0 0.000000000000000e0 0.000000000000000e0
0.000000000000000e0 0.000000000000000e0 0.000000000000000e0 0.000000000000000e0
0.000000000000000e0 0.000000000000000e0 0.000000000000000e0 0.000000000000000e0
0.000000000000000e0 0.000000000000000e0 0.000000000000000e0 0.000000000000000e0
0.000000000000000e0 0.000000000000000e0 0.000000000000000e0 0.000000000000000e0
0.000000000000000e0 0.000000000000000e0 0.000000000000000e0 0.000000000000000e0
0.000000000000000e0 0.000000000000000e0 0.000000000000000e0 0.000000000000000e0
0.000000000000000e0 0.000000000000000e0 0.000000000000000e0 0.000000000000000e0
0.000000000000000e0 0.000000000000000e0 0.000000000000000e0 0.000000000000000e0
0.000000000000000e0 0.000000000000000e0 0.000000000000000e0 0.000000000000000e0
0.000000000000000e0 0.000000000000000e0 0.000000000000000e0 0.000000000000000e0
0.000000000000000e0 0.000000000000000e0 0.000000000000000e0 0.000000000000000e0
0.000000000000000e0 0.000000000000000e0 0.000000000000000e0 0.000000000000000e0
0.000000000000000e0 0.000000000000000e0 0.000000000000000e0 0.000000000000000e0
0.000000000000000e0 0.000000000000000e0 0.000000000000000e0 0.000000000000000e0
0.000000000000000e0 0.000000000000000e0 0.000000000000000e0 0.000000000000000e0
0.000000000000000e0 0.000000000000000e0 0.000000000000000e0 0.000000000000000e0
0.000000000000000e0 0.000000000000000e0 0.000000000000000e0 0.000000000000000e0
0.000000000000000e0 0.000000000000000e0 0.000000000000000e0 0.000000000000000e0
0.000000000000000e0 0.000000000000000e0 0.000000000000000e0 0.000000000000000e0
0.000000000000000e0 0.000000000000000e0 0.000000000000000e0 0.000000000000000e0
0.000000000000000e0 0.000000000000000e0 0.000000000000000e0 0.000000000000000e0
0.000000000000000e0 0.000000000000000e0 0.000000000000000e0 0.000000000000000e0
0.000000000000000e0 0.000000000000000e0 0.000000000000000e0 0.000000000000000e0
0.000000000000000e0 0.000000000000000e0 0.000000000000000e0 0.000000000000000e0
0.000000000000000e0 0.000000000000000e0 0.000000000000000e0 0.000000000000000e0
0.000000000000000e0 0.000000000000000e0 0.000000000000000e0 0.000000000000000e0
0.000000000000000e0 0.000000000000000e0 0.000000000000000e0 0.000000000000000e0
0.000000000000000e0 0.000000000000000e0 0.000000000000000e0 0.000000000000000e0
0.000000000000000e0 0.000000000000000e0 0.000000000000000e0 0.000000000000000e0
0.000000000000000e0 0.000000000000000e0 0.000000000000000e0 0.000000000000000e0
0.000000000000000e0 0.000000000000000e0 0.000000000000000e0 0.000000000000000e0
0.000000000000000e0 0.000000000000000e0 0.000000000000000e0 0.000000000000000e0
0.000000000000000e0 0.000000000000000e0 0.000000000000000e0 0.000000000000000e0
0.000000000000000e0 0.000000000000000e0 0.000000000000000e0 0.000000000000000e0
0.000000000000000e0 0.000000000000000e0 0.000000000000000e0 0.000000000000000e0
0.000000000000000e0 0.000000000000000e0 0.000000000000000e0 0.000000000000000e0
0.000000000000000e0 0.000000000000000e0 0.000000000000000e0 0.000000000000000e0
0.000000000000000e0 0.000000000000000e0 0.000000000000000e0 0.000000000000000e0
0.000000000000000e0 0.000000000000000e0 0.000000000000000e0 0.000000000000000e0
0.000000000000000e0 0.000000000000000e0 0.000000000000000e0 0.000000000000000e0
0.000000000000000e0 0.000000000000000e0 0.000000000000000e0 0.000000000000000e0
0.000000000000000e0 0.000000000000000e0 0.000000000000000e0 0.000000000000000e0
0.000000000000000e0 0.000000000000000e0 0.000000000000000e0 0.000000000000000e0
0.000000000000000e0 0.000000000000000e0 0.000000000000000e0 0.000000000000000e0
0.000000000000000e0 0.000000000000000e0 0.000000000000000e0 0.000000000000000e0
0.000000000000000e0 0.000000000000000e0 0.000000000000000e0 0.000000000000000e0
0.000000000000000e0 0.000000000000000e0 0.000000000000000e0 0.000000000000000e0
0.000000000000000e0 0.000000000000000e0 0.000000000000000e0 0.000000000000000e0
0.000000000000000e0 0.000000000000000e0 0.000000000000000e0 0.000000000000000e0
0.000000000000000e0 0.000000000000000e0 0.000000000000000e0 0.000000000000000e0
0.000000000000000e0 0.000000000000000e0 0.000000000000000e0 0.000000000000000e0
0.000000000000000e0 0.000000000000000e0 0.000000000000000e0 0.000000000000000e0
0.000000000000000e0 0.000000000000000e0 0.000000000000000e0 0.000000000000000e0
0.000000000000000e0 0.000000000000000e0 0.000000000000000e0 0.000000000000000e0
0.000000000000000e0 0.000000000000000e0 0.000000000000000e0 0.000000000000000e0
0.000000000000000e0 0.000000000000000e0 0.000000000000000e0 0.000000000000000e0
0.000000000000000e0 0.000000000000000e0 0.000000000000000e0 0.000000000000000e0
0.000000000000000e0 0.000000000000000e0 0.000000000000000e0 0.000000000000000e0
0.000000000000000e0 0.000000000000000e0 0.000000000000000e0 0.000000000000000e0
0.000000000000000e0 0.000000000000000e0 0.000000000000000e0 0.000000000000000e0
0.000000000000000e0 0.000000000000000e0 0.000000000000000e0 0.000000000000000e0
0.000000000000000e0
</PP_QIJ.1.2>
<PP_QIJ.1.3 first_index="1" second_index="3" composite_index="4">
0.000000000000000e0 6.528908262590003e-15 5.358197570330000e-14 1.855290232690000e-13
4.512098916800000e-13 9.042538732170001e-13 1.603418984280000e-12 2.612952226710000e-12
4.002972049749999e-12 5.849874291840001e-12 8.236762952240001e-12 1.125390721760000e-11
1.499922624729999e-11 1.957880330380000e-11 2.510743090420000e-11 3.170918875790001e-11
3.951805635630001e-11 4.867856218029999e-11 5.934647160200001e-11 7.168951566860001e-11
8.588816307769999e-11 1.021364377810000e-10 1.206427847850000e-10 1.416309868580000e-10
1.653411350030000e-10 1.920306557080000e-10 2.219753981580000e-10 2.554707847560000e-10
2.928330284850000e-10 3.344004208500000e-10 3.805346943160001e-10 4.316224633980000e-10
4.880767487629999e-10 5.503385889530001e-10 6.188787445920000e-10 6.941995001800000e-10
7.768365688879999e-10 8.673611060319997e-10 9.663818372290001e-10 1.074547307540000e-9
1.192548258300000e-9 1.321120138580000e-9 1.461045758800000e-9 1.613158094180000e-9
1.778343246280000e-9 1.957543571360000e-9 2.151760984570000e-9 2.362060449720000e-9
2.589573664620000e-9 2.835502952830000e-9 3.101125372970000e-9 3.387797057449999e-9
3.696957793200000e-9 4.030135857420000e-9 4.388953122449999e-9 4.775130444109999e-9
5.190493349070000e-9 5.636978037500000e-9 6.116637717929998e-9 6.631649292480001e-9
7.184320411370000e-9 7.777096916619999e-9 8.412570696130000e-9 9.093487970190001e-9
9.822758033780000e-9 1.060346247940000e-8 1.143886492590000e-8 1.233242128160000e-8
1.328779056890000e-8 1.430884634240000e-8 1.539968873050000e-8 1.656465713630000e-8
1.780834363120000e-8 1.913560707910000e-8 2.055158803130000e-8 2.206172443160001e-8
2.367176817760000e-8 2.538780258090000e-8 2.721626077750001e-8 2.916394513719999e-8
3.123804772650000e-8 3.344617188030000e-8 3.579635494360001e-8 3.829709224340000e-8
4.095736235820000e-8 4.378665375400001e-8 4.679499285940000e-8 4.999297365669999e-8
5.339178887040000e-8 5.700326283730001e-8 6.083988614879999e-8 6.491485215920001e-8
6.924209545960002e-8 7.383633242199999e-8 7.871310392359999e-8 8.388882036759998e-8
8.938080912250001e-8 9.520736450830000e-8 1.013878004650000e-7 1.079425060460000e-7
1.148930038860000e-7 1.222620118040000e-7 1.300735076990000e-7 1.383527979310000e-7
1.471265893470000e-7 1.564230651660000e-7 1.662719649270000e-7 1.767046686920000e-7
1.877542857640000e-7 1.994557481270000e-7 2.118459088820000e-7 2.249636459290000e-7
2.388499711770000e-7 2.535481455760000e-7 2.691038002780000e-7 2.855650642470000e-7
3.029826986690000e-7 3.214102385060000e-7 3.409041415879999e-7 3.615239456289999e-7
3.833324335880000e-7 4.063958078210001e-7 4.307838734830000e-7 4.565702316679999e-7
4.838324827989999e-7 5.126524408180000e-7 5.431163587330000e-7 5.753151661299999e-7
6.093447192699999e-7 6.453060644529998e-7 6.833057153220000e-7 7.234559448660001e-7
7.658750928810000e-7 8.106878897009999e-7 8.580257970730001e-7 9.080273670550001e-7
9.608386199009999e-7 1.016613441930000e-6 1.075514004410000e-6 1.137711204610000e-6
1.203385130130000e-6 1.272725547750000e-6 1.345932418130000e-6 1.423216437620000e-6
1.504799608730000e-6 1.590915840670000e-6 1.681811581550000e-6 1.777746483980000e-6
1.878994105660000e-6 1.985842647060000e-6 2.098595727790000e-6 2.217573204030000e-6
2.343112028900000e-6 2.475567158250000e-6 2.615312504020000e-6 2.762741937900000e-6
2.918270347730000e-6 3.082334749480000e-6 3.255395457790000e-6 3.437937317980000e-6
3.630471002920000e-6 3.833534378000000e-6 4.047693937890000e-6 4.273546318739999e-6
4.511719889870001e-6 4.762876429020000e-6 5.027712885570002e-6 5.306963236320000e-6
5.601400438670000e-6 5.911838486310000e-6 6.239134572719999e-6 6.584191368159998e-6
6.947959416070000e-6 7.331439655050000e-6 7.735686073160000e-6 8.161808501099998e-6
8.610975551959999e-6 9.084417714760001e-6 9.583430610090000e-6 1.010937841620000e-5
1.066369747430000e-5 1.124790008280000e-5 1.186357848960000e-5 1.251240909370000e-5
1.319615686620000e-5 1.391668000240000e-5 1.467593481760000e-5 1.547598089750000e-5
1.631898651940000e-5 1.720723435480000e-5 1.814312747080000e-5 1.912919564480000e-5
2.016810200770000e-5 2.126265003540000e-5 2.241579090310000e-5 2.363063122430000e-5
2.491044119270000e-5 2.625866314890000e-5 2.767892059250000e-5 2.917502766440000e-5
3.075099912220000e-5 3.241106083530000e-5 3.415966082560000e-5 3.600148088260000e-5
3.794144878270000e-5 3.998475114300001e-5 4.213684694399999e-5 4.440348175330000e-5
4.679070268899999e-5 4.930487415890000e-5 5.195269441680001e-5 5.474121297720000e-5
5.767784893220000e-5 6.077041021880000e-5 6.402711388240000e-5 6.745660739080001e-5
7.106799105049999e-5 7.487084158219998e-5 7.887523691530001e-5 8.309178226399998e-5
8.753163754890000e-5 9.220654623530001e-5 9.712886565840002e-5 1.023115989120000e-4
1.077684283820000e-4 1.135137510030000e-4 1.195627153340000e-4 1.259312605380000e-4
1.326361573690000e-4 1.396950512560000e-4 1.471265076080000e-4 1.549500594400000e-4
1.631862574359999e-4 1.718567225790000e-4 1.809842014770000e-4 1.905926245160000e-4
2.007071669770000e-4 2.113543132900000e-4 2.225619245460000e-4 2.343593094590000e-4
2.467772989439999e-4 2.598483244750000e-4 2.736065004390000e-4 2.880877106550000e-4
3.033296992880000e-4 3.193721663650000e-4 3.362568681230000e-4 3.540277224180000e-4
3.727309194630000e-4 3.924150381409999e-4 4.131311681670000e-4 4.349330383970001e-4
4.578771515660001e-4 4.820229257870000e-4 5.074328431150001e-4 5.341726055450000e-4
5.623112987790001e-4 5.919215641509999e-4 6.230797790900001e-4 6.558662465350000e-4
6.903653937290000e-4 7.266659808350000e-4 7.648613198319999e-4 8.050495041869999e-4
8.473336498020000e-4 8.918221477570000e-4 9.386289294100001e-4 9.878737444190000e-4
1.039682452280000e-3 1.094187327980000e-3 1.151527382520000e-3 1.211848698740000e-3
1.275304783450000e-3 1.342056936340000e-3 1.412274636570000e-3 1.486135947720000e-3
1.563827942040000e-3 1.645547144660000e-3 1.731499998840000e-3 1.821903352970000e-3
1.916984970400000e-3 2.016984062970000e-3 2.122151849300000e-3 2.232752138820000e-3
2.349061942660000e-3 2.471372112420000e-3 2.599988008050000e-3 2.735230195930000e-3
2.877435178330000e-3 3.026956155550000e-3 3.184163821940000e-3 3.349447197110000e-3
3.523214493670000e-3 3.705894022809999e-3 3.897935139060000e-3 4.099809225810000e-3
4.312010722790000e-3 4.535058197070000e-3 4.769495459080001e-3 5.015892725080001e-3
5.274847827540000e-3 5.546987475080000e-3 5.832968563320000e-3 6.133479538240000e-3
6.449241813640000e-3 6.781011243980001e-3 7.129579654390001e-3 7.495776429120000e-3
7.880470159860000e-3 8.284570355600000e-3 8.709029215080001e-3 9.154843463419999e-3
9.623056254070001e-3 1.011475913730000e-2 1.063109409660000e-2 1.117325565360000e-2
1.174249304260000e-2 1.234011245640000e-2 1.296747936280000e-2 1.362602089320000e-2
1.431722830380000e-2 1.504265950970000e-2 1.580394169190000e-2 1.660277397730000e-2
1.744093019180000e-2 1.832026168570000e-2 1.924270023170000e-2 2.021026099360000e-2
2.122504556640000e-2 2.228924508510000e-2 2.340514340180000e-2 2.457512033020000e-2
2.580165495390000e-2 2.708732899950000e-2 2.843483026960000e-2 2.984695613580000e-2
3.132661708880000e-2 3.287684034290000e-2 3.450077349380000e-2 3.620168822560000e-2
3.798298406730000e-2 3.984819219530000e-2 4.180097927980000e-2 4.384515137590000e-2
4.598465785590000e-2 4.822359538470000e-2 5.056621193740000e-2 5.301691086100000e-2
5.558025498219999e-2 5.826097076480000e-2 6.106395252179999e-2 6.399426668820000e-2
6.705715616280000e-2 7.025804472940001e-2 7.360254156840000e-2 7.709644587500000e-2
8.074575159949999e-2 8.455665232990000e-2 8.853554633870001e-2 9.268904182000000e-2
9.702396234300000e-2 1.015473525530000e-1 1.062664841550000e-1 1.111888622070000e-1
1.163222317720000e-1 1.216745849510000e-1 1.272541683470000e-1 1.330694909850000e-1
1.391293327190000e-1 1.454427531670000e-1 1.520191011690000e-1 1.588680247880000e-1
1.659994818490000e-1 1.734237509710000e-1 1.811514430450000e-1 1.891935130800000e-1
1.975612722700000e-1 2.062664001250000e-1 2.153209564110000e-1 2.247373926210000e-1
2.345285625530000e-1 2.447077315370000e-1 2.552885836970000e-1 2.662852265020000e-1
2.777121917410000e-1 2.895844318400000e-1 3.019173102740000e-1 3.147265845980000e-1
3.280283803660000e-1 3.418391539760000e-1 3.561756421360000e-1 3.710547953880000e-1
3.864936927710000e-1 4.025094343720000e-1 4.191190081780000e-1 4.363391272980000e-1
4.541860333130000e-1 4.726752612249999e-1 4.918213612760000e-1 5.116375727299999e-1
5.321354447310000e-1 5.533243994610000e-1 5.752112331559999e-1 5.977995511350001e-1
6.210891338830001e-1 6.450752324990000e-1 6.697477935840000e-1 6.950906158490000e-1
7.210804436620000e-1 7.476860062670000e-1 7.748670158179999e-1 8.025731425220000e-1
8.307429913160000e-1 8.593031114730000e-1 8.881670784899999e-1 9.172346962480001e-1
9.463913768460001e-1 9.755077651630000e-1 1.004439684890000e0 1.033028491790000e0
1.061101927380000e0 1.088475571680000e0 1.114954994390000e0 1.140338700200000e0
1.164421952000000e0 1.187001534280000e0 1.207881485360000e0 1.226879777450000e0
1.243835856410000e0 1.258618863840000e0 1.271136252330000e0 1.281342367240000e0
1.289246407550000e0 1.294918996110000e0 1.298496394530000e0 1.300181203250000e0
1.300238214370000e0 1.298983965820000e0 1.296768524640000e0 1.293948166040000e0
1.290847989090000e0 1.287714216510000e0 1.284657072200000e0 1.281586830630000e0
1.278147986760000e0 1.273659553410000e0 1.267073192130000e0 1.256964950350000e0
1.241580156270000e0 1.218953231500000e0 1.187122503640000e0 1.144450603490000e0
1.090037255910000e0 1.024162921320000e0 9.486127183830000e-1 8.665756197859999e-1
7.815694477720000e-1 6.953872130710001e-1 6.088899441080001e-1 5.230910350240000e-1
4.392153253490000e-1 3.586855047760000e-1 2.830776549090000e-1 2.140386307970000e-1
1.531608888990000e-1 1.018159129330000e-1 6.095642524710000e-2 3.091038735460000e-2
1.120605952930000e-2 4.848745336060000e-4 -3.427707151090000e-3 -3.224840280470000e-3
-1.562822776270000e-3 -3.232417328960000e-4 -4.738020645610000e-6 0.000000000000000e0
0.000000000000000e0 0.000000000000000e0 0.000000000000000e0 0.000000000000000e0
0.000000000000000e0 0.000000000000000e0 0.000000000000000e0 0.000000000000000e0
0.000000000000000e0 0.000000000000000e0 0.000000000000000e0 0.000000000000000e0
0.000000000000000e0 0.000000000000000e0 0.000000000000000e0 0.000000000000000e0
0.000000000000000e0 0.000000000000000e0 0.000000000000000e0 0.000000000000000e0
0.000000000000000e0 0.000000000000000e0 0.000000000000000e0 0.000000000000000e0
0.000000000000000e0 0.000000000000000e0 0.000000000000000e0 0.000000000000000e0
0.000000000000000e0 0.000000000000000e0 0.000000000000000e0 0.000000000000000e0
0.000000000000000e0 0.000000000000000e0 0.000000000000000e0 0.000000000000000e0
0.000000000000000e0 0.000000000000000e0 0.000000000000000e0 0.000000000000000e0
0.000000000000000e0 0.000000000000000e0 0.000000000000000e0 0.000000000000000e0
0.000000000000000e0 0.000000000000000e0 0.000000000000000e0 0.000000000000000e0
0.000000000000000e0 0.000000000000000e0 0.000000000000000e0 0.000000000000000e0
0.000000000000000e0 0.000000000000000e0 0.000000000000000e0 0.000000000000000e0
0.000000000000000e0 0.000000000000000e0 0.000000000000000e0 0.000000000000000e0
0.000000000000000e0 0.000000000000000e0 0.000000000000000e0 0.000000000000000e0
0.000000000000000e0 0.000000000000000e0 0.000000000000000e0 0.000000000000000e0
0.000000000000000e0 0.000000000000000e0 0.000000000000000e0 0.000000000000000e0
0.000000000000000e0 0.000000000000000e0 0.000000000000000e0 0.000000000000000e0
0.000000000000000e0 0.000000000000000e0 0.000000000000000e0 0.000000000000000e0
0.000000000000000e0 0.000000000000000e0 0.000000000000000e0 0.000000000000000e0
0.000000000000000e0 0.000000000000000e0 0.000000000000000e0 0.000000000000000e0
0.000000000000000e0 0.000000000000000e0 0.000000000000000e0 0.000000000000000e0
0.000000000000000e0 0.000000000000000e0 0.000000000000000e0 0.000000000000000e0
0.000000000000000e0 0.000000000000000e0 0.000000000000000e0 0.000000000000000e0
0.000000000000000e0 0.000000000000000e0 0.000000000000000e0 0.000000000000000e0
0.000000000000000e0 0.000000000000000e0 0.000000000000000e0 0.000000000000000e0
0.000000000000000e0 0.000000000000000e0 0.000000000000000e0 0.000000000000000e0
0.000000000000000e0 0.000000000000000e0 0.000000000000000e0 0.000000000000000e0
0.000000000000000e0 0.000000000000000e0 0.000000000000000e0 0.000000000000000e0
0.000000000000000e0 0.000000000000000e0 0.000000000000000e0 0.000000000000000e0
0.000000000000000e0 0.000000000000000e0 0.000000000000000e0 0.000000000000000e0
0.000000000000000e0 0.000000000000000e0 0.000000000000000e0 0.000000000000000e0
0.000000000000000e0 0.000000000000000e0 0.000000000000000e0 0.000000000000000e0
0.000000000000000e0 0.000000000000000e0 0.000000000000000e0 0.000000000000000e0
0.000000000000000e0 0.000000000000000e0 0.000000000000000e0 0.000000000000000e0
0.000000000000000e0 0.000000000000000e0 0.000000000000000e0 0.000000000000000e0
0.000000000000000e0 0.000000000000000e0 0.000000000000000e0 0.000000000000000e0
0.000000000000000e0 0.000000000000000e0 0.000000000000000e0 0.000000000000000e0
0.000000000000000e0 0.000000000000000e0 0.000000000000000e0 0.000000000000000e0
0.000000000000000e0 0.000000000000000e0 0.000000000000000e0 0.000000000000000e0
0.000000000000000e0 0.000000000000000e0 0.000000000000000e0 0.000000000000000e0
0.000000000000000e0 0.000000000000000e0 0.000000000000000e0 0.000000000000000e0
0.000000000000000e0 0.000000000000000e0 0.000000000000000e0 0.000000000000000e0
0.000000000000000e0 0.000000000000000e0 0.000000000000000e0 0.000000000000000e0
0.000000000000000e0 0.000000000000000e0 0.000000000000000e0 0.000000000000000e0
0.000000000000000e0 0.000000000000000e0 0.000000000000000e0 0.000000000000000e0
0.000000000000000e0 0.000000000000000e0 0.000000000000000e0 0.000000000000000e0
0.000000000000000e0 0.000000000000000e0 0.000000000000000e0 0.000000000000000e0
0.000000000000000e0 0.000000000000000e0 0.000000000000000e0 0.000000000000000e0
0.000000000000000e0 0.000000000000000e0 0.000000000000000e0 0.000000000000000e0
0.000000000000000e0 0.000000000000000e0 0.000000000000000e0 0.000000000000000e0
0.000000000000000e0 0.000000000000000e0 0.000000000000000e0 0.000000000000000e0
0.000000000000000e0 0.000000000000000e0 0.000000000000000e0 0.000000000000000e0
0.000000000000000e0 0.000000000000000e0 0.000000000000000e0 0.000000000000000e0
0.000000000000000e0 0.000000000000000e0 0.000000000000000e0 0.000000000000000e0
0.000000000000000e0 0.000000000000000e0 0.000000000000000e0 0.000000000000000e0
0.000000000000000e0 0.000000000000000e0 0.000000000000000e0 0.000000000000000e0
0.000000000000000e0 0.000000000000000e0 0.000000000000000e0 0.000000000000000e0
0.000000000000000e0 0.000000000000000e0 0.000000000000000e0 0.000000000000000e0
0.000000000000000e0 0.000000000000000e0 0.000000000000000e0 0.000000000000000e0
0.000000000000000e0 0.000000000000000e0 0.000000000000000e0 0.000000000000000e0
0.000000000000000e0 0.000000000000000e0 0.000000000000000e0 0.000000000000000e0
0.000000000000000e0
</PP_QIJ.1.3>
<PP_QIJ.1.4 first_index="1" second_index="4" composite_index="7">
0.000000000000000e0 7.747593774269999e-15 6.358358315680002e-14 2.201598565070000e-13
5.354326956240000e-13 1.073041832730000e-12 1.902713051700000e-12 3.100685695899999e-12
4.750166520570001e-12 6.941811407860000e-12 9.774236546510002e-12 1.335456076720000e-11
1.779898081779999e-11 2.323338146260000e-11 2.979398239100000e-11 3.762802403410000e-11
4.689449450040001e-11 5.776489996590000e-11 7.042408097910000e-11 8.507107728059999e-11
1.019200438770000e-10 1.212012212580000e-10 1.431619628100000e-10 1.680678226370000e-10
1.962037071800000e-10 2.278750942210000e-10 2.634093230329999e-10 3.031569596570000e-10
3.474932415040000e-10 3.968196057009999e-10 4.515653058520000e-10 5.121891221200000e-10
5.791811698209999e-10 6.530648120009999e-10 7.343986817490000e-10 8.237788203219999e-10
9.218409374969999e-10 1.029262800880000e-9 1.146766761330000e-9 1.275122421900000e-9
1.415149458370000e-9 1.567720599490000e-9 1.733764775960000e-9 1.914270447110001e-9
2.110289115350001e-9 2.322939038430000e-9 2.553409150410000e-9 2.802963202850000e-9
3.072944138140000e-9 3.364778707610000e-9 3.679982347960000e-9 4.020164329920000e-9
4.387033193960000e-9 4.782402488860000e-9 5.208196829339999e-9 5.666458290330000e-9
6.159353156000000e-9 6.689179042850001e-9 7.258372417170000e-9 7.869516528160002e-9
8.525349779319999e-9 9.228774561690003e-9 9.982866574059999e-9 1.079088465630000e-8
1.165628116370000e-8 1.258271291130000e-8 1.357405271910000e-8 1.463440159070000e-8
1.576810155910000e-8 1.697974923540000e-8 1.827421009950000e-8 1.965663357120000e-8
2.113246890380000e-8 2.270748194610000e-8 2.438777281670000e-8 2.617979454180000e-8
2.809037270749999e-8 3.012672618010000e-8 3.229648895320000e-8 3.460773318039999e-8
3.706899345819999e-8 3.968929242560000e-8 4.247816775040000e-8 4.544570057700000e-8
4.860254551339999e-8 5.195996223989998e-8 5.552984882510001e-8 5.932477684260000e-8
6.335802838080000e-8 6.764363505100000e-8 7.219641909679999e-8 7.703203671840000e-8
8.216702372980000e-8 8.761884367259999e-8 9.340593851700000e-8 9.954778208850001e-8
1.060649363640000e-7 1.129791107930000e-7 1.203132247950000e-7 1.280914736210000e-7
1.363393977340000e-7 1.450839559130000e-7 1.543536022720000e-7 1.641783674030000e-7
1.745899438550000e-7 1.856217761900000e-7 1.973091558520000e-7 2.096893211050000e-7
2.228015623090000e-7 2.366873328130001e-7 2.513903657720001e-7 2.669567971909999e-7
2.834352955310000e-7 3.008771982230000e-7 3.193366554560001e-7 3.388707816210000e-7
3.595398148210000e-7 3.814072848670000e-7 4.045401902120000e-7 4.290091842960000e-7
4.548887717940000e-7 4.822575152940000e-7 5.111982529620001e-7 5.417983277509999e-7
5.741498287939999e-7 6.083498455990001e-7 6.445007357339999e-7 6.827104067040001e-7
7.230926127849999e-7 7.657672675739999e-7 8.108607731190000e-7 8.585063664709999e-7
9.088444845920002e-7 9.620231485869999e-7 1.018198368260000e-6 1.077534568100000e-6
1.140205035760000e-6 1.206392394290000e-6 1.276289099320000e-6 1.350097962560000e-6
1.428032702840000e-6 1.510318526430000e-6 1.597192737890000e-6 1.688905383220000e-6
1.785719926910001e-6 1.887913964820000e-6 1.995779974540000e-6 2.109626105450000e-6
2.229777010400000e-6 2.356574721180000e-6 2.490379570230000e-6 2.631571160880000e-6
2.780549388700000e-6 2.937735516650000e-6 3.103573306900000e-6 3.278530212160000e-6
3.463098629760000e-6 3.657797221790000e-6 3.863172304560000e-6 4.079799311310000e-6
4.308284331719999e-6 4.549265732460000e-6 4.803415862870000e-6 5.071442850360000e-6
5.354092490090000e-6 5.652150233950000e-6 5.966443284040000e-6 6.297842796079999e-6
6.647266198480001e-6 7.015679633180001e-6 7.404100524620000e-6 7.813600283420000e-6
8.245307151979999e-6 8.700409199330002e-6 9.180157472990002e-6 9.685869316080002e-6
1.021893185840000e-5 1.078080569020000e-5 1.137302872890000e-5 1.199722028790000e-5
1.265508535870000e-5 1.334841911750000e-5 1.407911166700000e-5 1.484915302720000e-5
1.566063838680000e-5 1.651577362980000e-5 1.741688115070000e-5 1.836640597380000e-5
1.936692219330000e-5 2.042113974880000e-5 2.153191155560000e-5 2.270224100730000e-5
2.393528987060000e-5 2.523438659180000e-5 2.660303503760000e-5 2.804492369130000e-5
2.956393533009999e-5 3.116415720569999e-5 3.284989175750000e-5 3.462566788290000e-5
3.649625279620000e-5 3.846666450470000e-5 4.054218493550000e-5 4.272837374540000e-5
4.503108284969999e-5 4.745647170840001e-5 5.001102340610000e-5 5.270156157010000e-5
5.553526816690000e-5 5.851970222450000e-5 6.166281952790000e-5 6.497299333740001e-5
6.845903618259999e-5 7.213022278880000e-5 7.599631419190000e-5 8.006758310509998e-5
8.435484060099999e-5 8.886946417610000e-5 9.362342727010001e-5 9.862933031339999e-5
1.039004333830000e-4 1.094506905460000e-4 1.152947859820000e-4 1.214481719720000e-4
1.279271088490000e-4 1.347487070130000e-4 1.419309711180000e-4 1.494928465290000e-4
1.574542681880000e-4 1.658362119870000e-4 1.746607487930000e-4 1.839511012540000e-4
1.937317035230000e-4 2.040282640570000e-4 2.148678316399999e-4 2.262788647980000e-4
2.382913047730000e-4 2.509366522370000e-4 2.642480479470000e-4 2.782603575090000e-4
2.930102605010000e-4 3.085363441330000e-4 3.248792016970000e-4 3.420815360450000e-4
3.601882683330000e-4 3.792466523060000e-4 3.993063944050000e-4 4.204197799699999e-4
4.426418058549999e-4 4.660303197670000e-4 4.906461666760001e-4 5.165533426150000e-4
5.438191562740000e-4 5.725143987440000e-4 6.027135218160000e-4 6.344948252729999e-4
6.679406535809999e-4 7.031376024800000e-4 7.401767359190002e-4 7.791538138589999e-4
8.201695314660002e-4 8.633297702420000e-4 9.087458616710000e-4 9.565348639800000e-4
1.006819852640000e-3 1.059730225260000e-3 1.115402021610000e-3 1.173978259330000e-3
1.235609286340000e-3 1.300453150420000e-3 1.368675987030000e-3 1.440452426040000e-3
1.515966018380000e-3 1.595409683390000e-3 1.678986177980000e-3 1.766908588460000e-3
1.859400846170000e-3 1.956698267950000e-3 2.059048122510000e-3 2.166710223990000e-3
2.279957553830000e-3 2.399076912170000e-3 2.524369600200000e-3 2.656152134710000e-3
2.794756996199999e-3 2.940533412170000e-3 3.093848176860000e-3 3.255086509150000e-3
3.424652950160000e-3 3.602972302170000e-3 3.790490610600000e-3 3.987676190790000e-3
4.195020701340000e-3 4.413040265980000e-3 4.642276645659999e-3 4.883298463110000e-3
5.136702481530000e-3 5.403114939760000e-3 5.683192945859999e-3 5.977625931230000e-3
6.287137167530000e-3 6.612485348580001e-3 6.954466239419999e-3 7.313914394949999e-3
7.691704950300000e-3 8.088755485340000e-3 8.506027965700000e-3 8.944530762530000e-3
9.405320753470001e-3 9.889505507090000e-3 1.039824555320000e-2 1.093275674110000e-2
1.149431268870000e-2 1.208424732340000e-2 1.270395751880000e-2 1.335490582730000e-2
1.403862331220000e-2 1.475671248010000e-2 1.551085031620000e-2 1.630279142340000e-2
1.713437126740000e-2 1.800750952840000e-2 1.892421356100000e-2 1.988658196340000e-2
2.089680825510000e-2 2.195718466590000e-2 2.307010603430000e-2 2.423807381490000e-2
2.546370019700000e-2 2.674971232900000e-2 2.809895665150000e-2 2.951440333460000e-2
3.099915081800000e-2 3.255643045120000e-2 3.418961123020000e-2 3.590220462720000e-2
3.769786950800000e-2 3.958041713400000e-2 4.155381623990000e-2 4.362219818410001e-2
4.578986216240000e-2 4.806128047820000e-2 5.044110386030000e-2 5.293416681940000e-2
5.554549303280000e-2 5.828030074670000e-2 6.114400818430000e-2 6.414223894799999e-2
6.728082740070001e-2 7.056582401430001e-2 7.400350066920001e-2 7.760035588880000e-2
8.136311999349999e-2 8.529876015679999e-2 8.941448534309998e-2 9.371775111120000e-2
9.821626426049999e-2 1.029179873000000e-1 1.078311427170000e-1 1.129642170230000e-1
1.183259645480000e-1 1.239254109590000e-1 1.297718564750000e-1 1.358748787370000e-1
1.422443353080000e-1 1.488903657600000e-1 1.558233932950000e-1 1.630541258650000e-1
1.705935567130000e-1 1.784529642900000e-1 1.866439114400000e-1 1.951782437910000e-1
2.040680872170000e-1 2.133258442580000e-1 2.229641893300000e-1 2.329960625620000e-1
2.434346620190000e-1 2.542934340800000e-1 2.655860616440000e-1 2.773264498300000e-1
2.895287087260000e-1 3.022071327040000e-1 3.153761757270000e-1 3.290504219540000e-1
3.432445508750000e-1 3.579732960560000e-1 3.732513964610000e-1 3.890935391410000e-1
4.055142919370000e-1 4.225280246490001e-1 4.401488169289999e-1 4.583903509650000e-1
4.772657867790000e-1 4.967876177850000e-1 5.169675039990000e-1 5.378160800940000e-1
5.593427353370000e-1 5.815553622280000e-1 6.044600706160001e-1 6.280608639790000e-1
6.523592746200000e-1 6.773539547060000e-1 7.030402203820000e-1 7.294095466880000e-1
7.564490117829999e-1 7.841406899390000e-1 8.124609941710000e-1 8.413799710620001e-1
8.708605525619999e-1 9.008577722070001e-1 9.313179564650000e-1 9.621779057840000e-1
9.933640844310000e-1 1.024791843360000e0 1.056364706160000e0 1.087973754560000e0
1.119497156730000e0 1.150799888690000e0 1.181733706380000e0 1.212137432230000e0
1.241837625800000e0 1.270649711810000e0 1.298379639700000e0 1.324826146220000e0
1.349783684050000e0 1.373046064270000e0 1.394410836210000e0 1.413684393140000e0
1.430687743860000e0 1.445262826570000e0 1.457279161650000e0 1.466640541170000e0
1.473291338330000e0 1.477221889240000e0 1.478472259890000e0 1.477133571290000e0
1.473345931580000e0 1.467291937440000e0 1.459184690730000e0 1.449249372560000e0
1.437697681260000e0 1.424694939970000e0 1.410320491900000e0 1.394523206910000e0
1.377075593850000e0 1.357532182820000e0 1.335200468030000e0 1.309135587410000e0
1.278172597310000e0 1.241011764370000e0 1.196371098340000e0 1.143213591340000e0
1.081039720460000e0 1.010201391320000e0 9.321302073220000e-1 8.492631586769999e-1
7.642770060289999e-1 6.786191455500000e-1 5.931070550100000e-1 5.087039021070000e-1
4.265632434650001e-1 3.480154426880000e-1 2.745255104930000e-1 2.076156855000000e-1
1.487487403270000e-1 9.917319472980001e-2 5.973996416970000e-2 3.071189950360000e-2
1.160270945420000e-2 1.097982896780000e-3 -2.876608635360000e-3 -2.876412039750000e-3
-1.418999089140000e-3 -2.958870635660000e-4 -4.306439761910001e-6 0.000000000000000e0
0.000000000000000e0 0.000000000000000e0 0.000000000000000e0 0.000000000000000e0
0.000000000000000e0 0.000000000000000e0 0.000000000000000e0 0.000000000000000e0
0.000000000000000e0 0.000000000000000e0 0.000000000000000e0 0.000000000000000e0
0.000000000000000e0 0.000000000000000e0 0.000000000000000e0 0.000000000000000e0
0.000000000000000e0 0.000000000000000e0 0.000000000000000e0 0.000000000000000e0
0.000000000000000e0 0.000000000000000e0 0.000000000000000e0 0.000000000000000e0
0.000000000000000e0 0.000000000000000e0 0.000000000000000e0 0.000000000000000e0
0.000000000000000e0 0.000000000000000e0 0.000000000000000e0 0.000000000000000e0
0.000000000000000e0 0.000000000000000e0 0.000000000000000e0 0.000000000000000e0
0.000000000000000e0 0.000000000000000e0 0.000000000000000e0 0.000000000000000e0
0.000000000000000e0 0.000000000000000e0 0.000000000000000e0 0.000000000000000e0
0.000000000000000e0 0.000000000000000e0 0.000000000000000e0 0.000000000000000e0
0.000000000000000e0 0.000000000000000e0 0.000000000000000e0 0.000000000000000e0
0.000000000000000e0 0.000000000000000e0 0.000000000000000e0 0.000000000000000e0
0.000000000000000e0 0.000000000000000e0 0.000000000000000e0 0.000000000000000e0
0.000000000000000e0 0.000000000000000e0 0.000000000000000e0 0.000000000000000e0
0.000000000000000e0 0.000000000000000e0 0.000000000000000e0 0.000000000000000e0
0.000000000000000e0 0.000000000000000e0 0.000000000000000e0 0.000000000000000e0
0.000000000000000e0 0.000000000000000e0 0.000000000000000e0 0.000000000000000e0
0.000000000000000e0 0.000000000000000e0 0.000000000000000e0 0.000000000000000e0
0.000000000000000e0 0.000000000000000e0 0.000000000000000e0 0.000000000000000e0
0.000000000000000e0 0.000000000000000e0 0.000000000000000e0 0.000000000000000e0
0.000000000000000e0 0.000000000000000e0 0.000000000000000e0 0.000000000000000e0
0.000000000000000e0 0.000000000000000e0 0.000000000000000e0 0.000000000000000e0
0.000000000000000e0 0.000000000000000e0 0.000000000000000e0 0.000000000000000e0
0.000000000000000e0 0.000000000000000e0 0.000000000000000e0 0.000000000000000e0
0.000000000000000e0 0.000000000000000e0 0.000000000000000e0 0.000000000000000e0
0.000000000000000e0 0.000000000000000e0 0.000000000000000e0 0.000000000000000e0
0.000000000000000e0 0.000000000000000e0 0.000000000000000e0 0.000000000000000e0
0.000000000000000e0 0.000000000000000e0 0.000000000000000e0 0.000000000000000e0
0.000000000000000e0 0.000000000000000e0 0.000000000000000e0 0.000000000000000e0
0.000000000000000e0 0.000000000000000e0 0.000000000000000e0 0.000000000000000e0
0.000000000000000e0 0.000000000000000e0 0.000000000000000e0 0.000000000000000e0
0.000000000000000e0 0.000000000000000e0 0.000000000000000e0 0.000000000000000e0
0.000000000000000e0 0.000000000000000e0 0.000000000000000e0 0.000000000000000e0
0.000000000000000e0 0.000000000000000e0 0.000000000000000e0 0.000000000000000e0
0.000000000000000e0 0.000000000000000e0 0.000000000000000e0 0.000000000000000e0
0.000000000000000e0 0.000000000000000e0 0.000000000000000e0 0.000000000000000e0
0.000000000000000e0 0.000000000000000e0 0.000000000000000e0 0.000000000000000e0
0.000000000000000e0 0.000000000000000e0 0.000000000000000e0 0.000000000000000e0
0.000000000000000e0 0.000000000000000e0 0.000000000000000e0 0.000000000000000e0
0.000000000000000e0 0.000000000000000e0 0.000000000000000e0 0.000000000000000e0
0.000000000000000e0 0.000000000000000e0 0.000000000000000e0 0.000000000000000e0
0.000000000000000e0 0.000000000000000e0 0.000000000000000e0 0.000000000000000e0
0.000000000000000e0 0.000000000000000e0 0.000000000000000e0 0.000000000000000e0
0.000000000000000e0 0.000000000000000e0 0.000000000000000e0 0.000000000000000e0
0.000000000000000e0 0.000000000000000e0 0.000000000000000e0 0.000000000000000e0
0.000000000000000e0 0.000000000000000e0 0.000000000000000e0 0.000000000000000e0
0.000000000000000e0 0.000000000000000e0 0.000000000000000e0 0.000000000000000e0
0.000000000000000e0 0.000000000000000e0 0.000000000000000e0 0.000000000000000e0
0.000000000000000e0 0.000000000000000e0 0.000000000000000e0 0.000000000000000e0
0.000000000000000e0 0.000000000000000e0 0.000000000000000e0 0.000000000000000e0
0.000000000000000e0 0.000000000000000e0 0.000000000000000e0 0.000000000000000e0
0.000000000000000e0 0.000000000000000e0 0.000000000000000e0 0.000000000000000e0
0.000000000000000e0 0.000000000000000e0 0.000000000000000e0 0.000000000000000e0
0.000000000000000e0 0.000000000000000e0 0.000000000000000e0 0.000000000000000e0
0.000000000000000e0 0.000000000000000e0 0.000000000000000e0 0.000000000000000e0
0.000000000000000e0 0.000000000000000e0 0.000000000000000e0 0.000000000000000e0
0.000000000000000e0 0.000000000000000e0 0.000000000000000e0 0.000000000000000e0
0.000000000000000e0 0.000000000000000e0 0.000000000000000e0 0.000000000000000e0
0.000000000000000e0 0.000000000000000e0 0.000000000000000e0 0.000000000000000e0
0.000000000000000e0 0.000000000000000e0 0.000000000000000e0 0.000000000000000e0
0.000000000000000e0 0.000000000000000e0 0.000000000000000e0 0.000000000000000e0
0.000000000000000e0
</PP_QIJ.1.4>
<PP_QIJ.2.2 first_index="2" second_index="2" composite_index="3">
0.000000000000000e0 -2.867059845410000e-10 -1.166511065260000e-9 -2.669834164630000e-9
-4.828313439800000e-9 -7.674851233809998e-9 -1.124366062650000e-8 -1.557031364090000e-8
-2.069179116350000e-8 -2.664653463820000e-8 -3.347449959530000e-8 -4.121721108070001e-8
-4.991782105190000e-8 -5.962116780780001e-8 -7.037383752559998e-8 -8.222422797700000e-8
-9.522261450029998e-8 -1.094212183070000e-7 -1.248742772050000e-7 -1.416381188220000e-7
-1.597712364170000e-7 -1.793343673670000e-7 -2.003905744310000e-7 -2.230053298790000e-7
-2.472466025850001e-7 -2.731849482010000e-7 -3.008936025000000e-7 -3.304485780160001e-7
-3.619287640840001e-7 -3.954160304049999e-7 -4.309953342539999e-7 -4.687548314640001e-7
-5.087859913090000e-7 -5.511837154319999e-7 -5.960464609509999e-7 -6.434763678880000e-7
-6.935793910800001e-7 -7.464654367169999e-7 -8.022485036780001e-7 -8.610468298210000e-7
-9.229830434120000e-7 -9.881843198609999e-7 -1.056782543950000e-6 -1.128914477760000e-6
-1.204721934480000e-6 -1.284351958250000e-6 -1.367957010450000e-6 -1.455695162300000e-6
-1.547730294400000e-6 -1.644232303130000e-6 -1.745377314310000e-6 -1.851347904330000e-6
-1.962333329050000e-6 -2.078529760610000e-6 -2.200140532600000e-6 -2.327376393790000e-6
-2.460455770670000e-6 -2.599605039200000e-6 -2.745058806070000e-6 -2.897060199699999e-6
-3.055861171510000e-6 -3.221722807590001e-6 -3.394915651300000e-6 -3.575720037160000e-6
-3.764426436280000e-6 -3.961335813959999e-6 -4.166759999620001e-6 -4.381022069749999e-6
-4.604456744110000e-6 -4.837410795819999e-6 -5.080243475630000e-6 -5.333326951060000e-6
-5.597046760779999e-6 -5.871802284810000e-6 -6.158007231139999e-6 -6.456090139199999e-6
-6.766494900920001e-6 -7.089681299899999e-6 -7.426125569300001e-6 -7.776320969150001e-6
-8.140778383819999e-6 -8.520026940110002e-6 -8.914614646919999e-6 -9.325109057190001e-6
-9.752097952720002e-6 -1.019619005290000e-5 -1.065801574810000e-5 -1.113822785820000e-5
-1.163750241810000e-5 -1.215653948980000e-5 -1.269606400320000e-5 -1.325682662580000e-5
-1.383960466270000e-5 -1.444520298810000e-5 -1.507445500830000e-5 -1.572822365920000e-5
-1.640740243750000e-5 -1.711291646850000e-5 -1.784572360990000e-5 -1.860681559500000e-5
-1.939721921490000e-5 -2.021799754130000e-5 -2.107025119310000e-5 -2.195511964530000e-5
-2.287378258410000e-5 -2.382746130930000e-5 -2.481742018410000e-5 -2.584496813640000e-5
-2.691146021160000e-5 -2.801829917899999e-5 -2.916693719370000e-5 -3.035887751720000e-5
-3.159567629610000e-5 -3.287894440300000e-5 -3.421034934180000e-5 -3.559161721770000e-5
-3.702453477650000e-5 -3.851095151360000e-5 -4.005278185670000e-5 -4.165200742380000e-5
-4.331067935889999e-5 -4.503092074920001e-5 -4.681492912530000e-5 -4.866497904840000e-5
-5.058342478660000e-5 -5.257270308399999e-5 -5.463533602530001e-5 -5.677393399949999e-5
-5.899119876640000e-5 -6.128992662850000e-5 -6.367301171320000e-5 -6.614344936780001e-5
-6.870433967199999e-5 -7.135889107250000e-5 -7.411042414140001e-5 -7.696237546670000e-5
-7.991830167530001e-5 -8.298188359580001e-5 -8.615693056500000e-5 -8.944738488310000e-5
-9.285732642209998e-5 -9.639097739430001e-5 -1.000527072850000e-4 -1.038470379540000e-4
-1.077786489170000e-4 -1.118523828030000e-4 -1.160732510070000e-4 -1.204464395340000e-4
-1.249773150410000e-4 -1.296714310960000e-4 -1.345345346460000e-4 -1.395725727090000e-4
-1.447916992990000e-4 -1.501982825900000e-4 -1.557989123210000e-4 -1.616004074620000e-4
-1.676098241460000e-4 -1.738344638640000e-4 -1.802818819570000e-4 -1.869598963850000e-4
-1.938765968080000e-4 -2.010403539770000e-4 -2.084598294510000e-4 -2.161439856370000e-4
-2.241020961930000e-4 -2.323437567740000e-4 -2.408788961560000e-4 -2.497177877360000e-4
-2.588710614350000e-4 -2.683497160040000e-4 -2.781651317570000e-4 -2.883290837350000e-4
-2.988537553310000e-4 -3.097517523760001e-4 -3.210361177130000e-4 -3.327203462670000e-4
-3.448184006360000e-4 -3.573447272140000e-4 -3.703142728690000e-4 -3.837425021910001e-4
-3.976454153360000e-4 -4.120395664720000e-4 -4.269420828660000e-4 -4.423706846210001e-4
-4.583437050900001e-4 -4.748801119850000e-4 -4.919995292130000e-4 -5.097222594560000e-4
-5.280693075240000e-4 -5.470624045050000e-4 -5.667240327419999e-4 -5.870774516620000e-4
-6.081467244840000e-4 -6.299567458450000e-4 -6.525332703590001e-4 -6.759029421590000e-4
-7.000933254390000e-4 -7.251329360380000e-4 -7.510512741030000e-4 -7.778788578549999e-4
-8.056472585120000e-4 -8.343891363919999e-4 -8.641382782499999e-4 -8.949296358720000e-4
-9.267993659910001e-4 -9.597848715420000e-4 -9.939248443289999e-4 -1.029259309130000e-3
-1.065829669280000e-3 -1.103678753840000e-3 -1.142850866300000e-3 -1.183391834970000e-3
-1.225349065040000e-3 -1.268771592450000e-3 -1.313710139490000e-3 -1.360217172340000e-3
-1.408346960510000e-3 -1.458155638300000e-3 -1.509701268280000e-3 -1.563043906970000e-3
-1.618245672620000e-3 -1.675370815350000e-3 -1.734485789580000e-3 -1.795659328870000e-3
-1.858962523320000e-3 -1.924468899430000e-3 -1.992254502750000e-3 -2.062397983160000e-3
-2.134980683030000e-3 -2.210086728290000e-3 -2.287803122510000e-3 -2.368219844060000e-3
-2.451429946510000e-3 -2.537529662270000e-3 -2.626618509720000e-3 -2.718799403720000e-3
-2.814178769880000e-3 -2.912866662430000e-3 -3.014976886000000e-3 -3.120627121300000e-3
-3.229939054960000e-3 -3.343038513430000e-3 -3.460055601340000e-3 -3.581124844200001e-3
-3.706385335740000e-3 -3.835980889910000e-3 -3.970060197770000e-3 -4.108776989330000e-3
-4.252290200570000e-3 -4.400764145610000e-3 -4.554368694470000e-3 -4.713279456260000e-3
-4.877677968120000e-3 -5.047751890100001e-3 -5.223695205960000e-3 -5.405708430300001e-3
-5.593998821860000e-3 -5.788780603540000e-3 -5.990275188940000e-3 -6.198711415829999e-3
-6.414325786570001e-3 -6.637362715790001e-3 -6.868074785350000e-3 -7.106723006880000e-3
-7.353577091920000e-3 -7.608915730029999e-3 -7.873026874810001e-3 -8.146208038210000e-3
-8.428766593109998e-3 -8.721020084469998e-3 -9.023296549089999e-3 -9.335934844280001e-3
-9.659284985389998e-3 -9.993708492540000e-3 -1.033957874660000e-2 -1.069728135430000e-2
-1.106721452330000e-2 -1.144978944640000e-2 -1.184543069580000e-2 -1.225457662660000e-2
-1.267767979080000e-2 -1.311520736080000e-2 -1.356764156240000e-2 -1.403548011900000e-2
-1.451923670420000e-2 -1.501944140500000e-2 -1.553664119500000e-2 -1.607140041670000e-2
-1.662430127350000e-2 -1.719594433160000e-2 -1.778694903020000e-2 -1.839795420120000e-2
-1.902961859690000e-2 -1.968262142670000e-2 -2.035766290070000e-2 -2.105546478110000e-2
-2.177677093990000e-2 -2.252234792290000e-2 -2.329298551920000e-2 -2.408949733440000e-2
-2.491272136820000e-2 -2.576352059390000e-2 -2.664278353970000e-2 -2.755142486980000e-2
-2.849038596400000e-2 -2.946063549510000e-2 -3.046317000060000e-2 -3.149901444890000e-2
-3.256922279590000e-2 -3.367487853150000e-2 -3.481709521220000e-2 -3.599701697720000e-2
-3.721581904630000e-2 -3.847470819410001e-2 -3.977492319860000e-2 -4.111773526029999e-2
-4.250444838680000e-2 -4.393639973760000e-2 -4.541495992710000e-2 -4.694153327670000e-2
-4.851755801250000e-2 -5.014450640170000e-2 -5.182388482059999e-2 -5.355723374690000e-2
-5.534612766839999e-2 -5.719217489950000e-2 -5.909701729619999e-2 -6.106232985920000e-2
-6.308982021499999e-2 -6.518122796340000e-2 -6.733832387829999e-2 -6.956290894890000e-2
-7.185681324780000e-2 -7.422189460920001e-2 -7.666003710200000e-2 -7.917314928060000e-2
-8.176316219369999e-2 -8.443202713180000e-2 -8.718171309279999e-2 -9.001420394269999e-2
-9.293149524740000e-2 -9.593559075089999e-2 -9.902849847290000e-2 -1.022122263980000e-1
-1.054887777230000e-1 -1.088601456430000e-1 -1.123283076200000e-1 -1.158952191290000e-1
-1.195628068230000e-1 -1.233329610820000e-1 -1.272075279240000e-1 -1.311883002120000e-1
-1.352770081370000e-1 -1.394753089200000e-1 -1.437847756970000e-1 -1.482068855370000e-1
-1.527430065470000e-1 -1.573943840290000e-1 -1.621621256310000e-1 -1.670471854490000e-1
-1.720503470480000e-1 -1.771722053450000e-1 -1.824131473290000e-1 -1.877733315710000e-1
-1.932526665010000e-1 -1.988507874240000e-1 -2.045670322560000e-1 -2.104004159660000e-1
-2.163496037340000e-1 -2.224128828220000e-1 -2.285881331940000e-1 -2.348727969170000e-1
-2.412638464060000e-1 -2.477577515920000e-1 -2.543504461050000e-1 -2.610372926180000e-1
-2.678130474930000e-1 -2.746718249350000e-1 -2.816070608600000e-1 -2.886114767770000e-1
-2.956770439600000e-1 -3.027949482960000e-1 -3.099555562070000e-1 -3.171483821160000e-1
-3.243620579730000e-1 -3.315843054380000e-1 -3.388019113540000e-1 -3.460007072280000e-1
-3.531655534930000e-1 -3.602803293830000e-1 -3.673279293190000e-1 -3.742902667540000e-1
-3.811482864640000e-1 -3.878819863130000e-1 -3.944704495370000e-1 -4.008918885790000e-1
-4.071237014899999e-1 -4.131425418510000e-1 -4.189244030700000e-1 -4.244447177730001e-1
-4.296784728190000e-1 -4.346003401960000e-1 -4.391848237760000e-1 -4.434064214670000e-1
-4.472398018400000e-1 -4.506599937370000e-1 -4.536425866940000e-1 -4.561639392230000e-1
-4.582013911700001e-1 -4.597334753540000e-1 -4.607401226770000e-1 -4.612028537790000e-1
-4.611049491630000e-1 -4.604315886000000e-1 -4.591699495660000e-1 -4.573092535520000e-1
-4.548407484490000e-1 -4.517576149500000e-1 -4.480547851650000e-1 -4.437286626650000e-1
-4.387767351120000e-1 -4.331970737850000e-1 -4.269877189530000e-1 -4.201459564789999e-1
-4.126674995500000e-1 -4.045456003790000e-1 -3.957701303150000e-1 -3.863266831810000e-1
-3.761957759600000e-1 -3.653522428020000e-1 -3.537649422830000e-1 -3.413969228520000e-1
-3.282062157620000e-1 -3.141474459350000e-1 -2.991744656860000e-1 -2.832442188720000e-1
-2.663220274960000e-1 -2.483884506220000e-1 -2.294477863250000e-1 -2.095381592600000e-1
-1.887429455800000e-1 -1.672030194220000e-1 -1.451289488120000e-1 -1.228118162880000e-1
-1.006307949690000e-1 -7.905499864430000e-2 -5.863650419270000e-2 -3.999093317350000e-2
-2.376178376460000e-2 -1.056517078490000e-2 -9.133170447059999e-4 4.881085677780000e-3
6.810331212110000e-3 5.265031794090000e-3 1.072367934950000e-3 -4.597498127730000e-3
-1.058591835720000e-2 -1.629423230390000e-2 -2.145322050310000e-2 -2.581721243830000e-2
-2.916556312570000e-2 -3.131794774780000e-2 -3.215105242270000e-2 -3.161561334330000e-2
-2.975201531960000e-2 -2.670201391300000e-2 -2.271314674550000e-2 -1.813182028840000e-2
-1.338040302130000e-2 -8.914359063989998e-3 -5.157216810500000e-3 -2.416687492300000e-3
-7.950305986580000e-4 -1.259223486220000e-4 -1.229124955130000e-6 0.000000000000000e0
0.000000000000000e0 0.000000000000000e0 0.000000000000000e0 0.000000000000000e0
0.000000000000000e0 0.000000000000000e0 0.000000000000000e0 0.000000000000000e0
0.000000000000000e0 0.000000000000000e0 0.000000000000000e0 0.000000000000000e0
0.000000000000000e0 0.000000000000000e0 0.000000000000000e0 0.000000000000000e0
0.000000000000000e0 0.000000000000000e0 0.000000000000000e0 0.000000000000000e0
0.000000000000000e0 0.000000000000000e0 0.000000000000000e0 0.000000000000000e0
0.000000000000000e0 0.000000000000000e0 0.000000000000000e0 0.000000000000000e0
0.000000000000000e0 0.000000000000000e0 0.000000000000000e0 0.000000000000000e0
0.000000000000000e0 0.000000000000000e0 0.000000000000000e0 0.000000000000000e0
0.000000000000000e0 0.000000000000000e0 0.000000000000000e0 0.000000000000000e0
0.000000000000000e0 0.000000000000000e0 0.000000000000000e0 0.000000000000000e0
0.000000000000000e0 0.000000000000000e0 0.000000000000000e0 0.000000000000000e0
0.000000000000000e0 0.000000000000000e0 0.000000000000000e0 0.000000000000000e0
0.000000000000000e0 0.000000000000000e0 0.000000000000000e0 0.000000000000000e0
0.000000000000000e0 0.000000000000000e0 0.000000000000000e0 0.000000000000000e0
0.000000000000000e0 0.000000000000000e0 0.000000000000000e0 0.000000000000000e0
0.000000000000000e0 0.000000000000000e0 0.000000000000000e0 0.000000000000000e0
0.000000000000000e0 0.000000000000000e0 0.000000000000000e0 0.000000000000000e0
0.000000000000000e0 0.000000000000000e0 0.000000000000000e0 0.000000000000000e0
0.000000000000000e0 0.000000000000000e0 0.000000000000000e0 0.000000000000000e0
0.000000000000000e0 0.000000000000000e0 0.000000000000000e0 0.000000000000000e0
0.000000000000000e0 0.000000000000000e0 0.000000000000000e0 0.000000000000000e0
0.000000000000000e0 0.000000000000000e0 0.000000000000000e0 0.000000000000000e0
0.000000000000000e0 0.000000000000000e0 0.000000000000000e0 0.000000000000000e0
0.000000000000000e0 0.000000000000000e0 0.000000000000000e0 0.000000000000000e0
0.000000000000000e0 0.000000000000000e0 0.000000000000000e0 0.000000000000000e0
0.000000000000000e0 0.000000000000000e0 0.000000000000000e0 0.000000000000000e0
0.000000000000000e0 0.000000000000000e0 0.000000000000000e0 0.000000000000000e0
0.000000000000000e0 0.000000000000000e0 0.000000000000000e0 0.000000000000000e0
0.000000000000000e0 0.000000000000000e0 0.000000000000000e0 0.000000000000000e0
0.000000000000000e0 0.000000000000000e0 0.000000000000000e0 0.000000000000000e0
0.000000000000000e0 0.000000000000000e0 0.000000000000000e0 0.000000000000000e0
0.000000000000000e0 0.000000000000000e0 0.000000000000000e0 0.000000000000000e0
0.000000000000000e0 0.000000000000000e0 0.000000000000000e0 0.000000000000000e0
0.000000000000000e0 0.000000000000000e0 0.000000000000000e0 0.000000000000000e0
0.000000000000000e0 0.000000000000000e0 0.000000000000000e0 0.000000000000000e0
0.000000000000000e0 0.000000000000000e0 0.000000000000000e0 0.000000000000000e0
0.000000000000000e0 0.000000000000000e0 0.000000000000000e0 0.000000000000000e0
0.000000000000000e0 0.000000000000000e0 0.000000000000000e0 0.000000000000000e0
0.000000000000000e0 0.000000000000000e0 0.000000000000000e0 0.000000000000000e0
0.000000000000000e0 0.000000000000000e0 0.000000000000000e0 0.000000000000000e0
0.000000000000000e0 0.000000000000000e0 0.000000000000000e0 0.000000000000000e0
0.000000000000000e0 0.000000000000000e0 0.000000000000000e0 0.000000000000000e0
0.000000000000000e0 0.000000000000000e0 0.000000000000000e0 0.000000000000000e0
0.000000000000000e0 0.000000000000000e0 0.000000000000000e0 0.000000000000000e0
0.000000000000000e0 0.000000000000000e0 0.000000000000000e0 0.000000000000000e0
0.000000000000000e0 0.000000000000000e0 0.000000000000000e0 0.000000000000000e0
0.000000000000000e0 0.000000000000000e0 0.000000000000000e0 0.000000000000000e0
0.000000000000000e0 0.000000000000000e0 0.000000000000000e0 0.000000000000000e0
0.000000000000000e0 0.000000000000000e0 0.000000000000000e0 0.000000000000000e0
0.000000000000000e0 0.000000000000000e0 0.000000000000000e0 0.000000000000000e0
0.000000000000000e0 0.000000000000000e0 0.000000000000000e0 0.000000000000000e0
0.000000000000000e0 0.000000000000000e0 0.000000000000000e0 0.000000000000000e0
0.000000000000000e0 0.000000000000000e0 0.000000000000000e0 0.000000000000000e0
0.000000000000000e0 0.000000000000000e0 0.000000000000000e0 0.000000000000000e0
0.000000000000000e0 0.000000000000000e0 0.000000000000000e0 0.000000000000000e0
0.000000000000000e0 0.000000000000000e0 0.000000000000000e0 0.000000000000000e0
0.000000000000000e0 0.000000000000000e0 0.000000000000000e0 0.000000000000000e0
0.000000000000000e0 0.000000000000000e0 0.000000000000000e0 0.000000000000000e0
0.000000000000000e0 0.000000000000000e0 0.000000000000000e0 0.000000000000000e0
0.000000000000000e0 0.000000000000000e0 0.000000000000000e0 0.000000000000000e0
0.000000000000000e0 0.000000000000000e0 0.000000000000000e0 0.000000000000000e0
0.000000000000000e0 0.000000000000000e0 0.000000000000000e0 0.000000000000000e0
0.000000000000000e0
</PP_QIJ.2.2>
<PP_QIJ.2.3 first_index="2" second_index="3" composite_index="5">
0.000000000000000e0 8.105836619569999e-15 6.652363969510001e-14 2.303398808600000e-13
5.601906962839998e-13 1.122658470950000e-12 1.990693055870000e-12 3.244059043459999e-12
4.969810605789999e-12 7.262795483659998e-12 1.022618980280000e-11 1.397206548640000e-11
1.862199213070000e-11 2.430767531430000e-11 3.117163341980001e-11 3.936791516170000e-11
4.906286013520001e-11 6.043590482800001e-11 7.368043667099999e-11 8.900469884610002e-11
1.066327487180000e-10 1.268054729160000e-10 1.497816622490000e-10 1.758391498300000e-10
2.052760159470000e-10 2.384118634280000e-10 2.755891674459999e-10 3.171747039310000e-10
3.635610609630000e-10 4.151682377920000e-10 4.724453363480000e-10 5.358723504059999e-10
6.059620577999998e-10 6.832620214369999e-10 7.683567051209998e-10 8.618697105399999e-10
9.644661421369999e-10 1.076855106900000e-9 1.199792356530000e-9 1.334083079850000e-9
1.480584853700000e-9 1.640210761010000e-9 1.813932685350000e-9 2.002784791520000e-9
2.207867202370000e-9 2.430349882810000e-9 2.671476742070000e-9 2.932569966339999e-9
3.215034594280000e-9 3.520363348790000e-9 3.850141738790000e-9 4.206053445990000e-9
4.589886011970002e-9 5.003536842039999e-9 5.449019543000000e-9 5.928470613030000e-9
6.444156502830001e-9 6.998481068030000e-9 7.593993434250002e-9 8.233396297039999e-9
8.919554680329998e-9 9.655505178099999e-9 1.044446570560000e-8 1.128984578710000e-8
1.219525741030000e-8 1.316452647640000e-8 1.420170487940000e-8 1.531108324740000e-8
1.649720438260000e-8 1.776487743680000e-8 1.911919286230000e-8 2.056553818010000e-8
2.210961460830000e-8 2.375745459920000e-8 2.551544033080000e-8 2.739032320610000e-8
2.938924441450000e-8 3.151975660960000e-8 3.378984676680000e-8 3.620796028090000e-8
3.878302637160000e-8 4.152448486660000e-8 4.444231443590001e-8 4.754706235480000e-8
5.084987587740000e-8 5.436253530620001e-8 5.809748884959999e-8 6.206788936059999e-8
6.628763305940000e-8 7.077140034389999e-8 7.553469879989999e-8 8.059390852869999e-8
8.596632991510001e-8 9.167023396560001e-8 9.772491535350001e-8 1.041507483160000e-7
1.109692455510000e-7 1.182031202850000e-7 1.258763516550000e-7 1.340142536190000e-7
1.426435475410000e-7 1.517924386760000e-7 1.614906967520000e-7 1.717697408560000e-7
1.826627288770000e-7 1.942046517150000e-7 2.064324325400001e-7 2.193850313510000e-7
2.331035551130000e-7 2.476313737860000e-7 2.630142425330000e-7 2.793004304570000e-7
2.965408561950000e-7 3.147892307459999e-7 3.341022079029999e-7 3.545395427010000e-7
3.761642582940000e-7 3.990428217219999e-7 4.232453290220000e-7 4.488457001850000e-7
4.759218844750000e-7 5.045560766640000e-7 5.348349447510000e-7 5.668498697700002e-7
6.006971983400000e-7 6.364785086039999e-7 6.743008902909999e-7 7.142772396180000e-7
7.565265698400001e-7 8.011743382510000e-7 8.483527905209998e-7 8.982013232580000e-7
9.508668657910000e-7 1.006504282150000e-6 1.065276794310000e-6 1.127356427870000e-6
1.192924481280000e-6 1.262172019829999e-6 1.335300395890000e-6 1.412521796490000e-6
1.494059819950000e-6 1.580150082920000e-6 1.671040859450000e-6 1.766993753900000e-6
1.868284409280000e-6 1.975203252960000e-6 2.088056281830000e-6 2.207165888750001e-6
2.332871732690000e-6 2.465531654630000e-6 2.605522641859999e-6 2.753241842980000e-6
2.909107636490000e-6 3.073560755540000e-6 3.247065472030000e-6 3.430110842940000e-6
3.623212022380000e-6 3.826911642580000e-6 4.041781267599999e-6 4.268422923510000e-6
4.507470709000000e-6 4.759592490719999e-6 5.025491687710000e-6 5.305909149659999e-6
5.601625133799999e-6 5.913461385690000e-6 6.242283329310001e-6 6.589002372109999e-6
6.954578331130000e-6 7.340021986410000e-6 7.746397768510001e-6 8.174826586870001e-6
8.626488806730002e-6 9.102627382020000e-6 9.604551152640001e-6 1.013363831450000e-5
1.069134007150000e-5 1.127918447900000e-5 1.189878048820000e-5 1.255182220300000e-5
1.324009335950000e-5 1.396547203940000e-5 1.472993563170000e-5 1.553556605230000e-5
1.638455523780000e-5 1.727921092640000e-5 1.822196274110000e-5 1.921536859070000e-5
2.026212140640000e-5 2.136505622880000e-5 2.252715766700000e-5 2.375156774620000e-5
2.504159416520000e-5 2.640071898570000e-5 2.783260777440000e-5 2.934111922280000e-5
3.093031526840000e-5 3.260447174429999e-5 3.436808958350000e-5 3.622590660780001e-5
3.818290993090000e-5 4.024434900760000e-5 4.241574936280000e-5 4.470292703530000e-5
4.711200377370001e-5 4.964942302240000e-5 5.232196674010002e-5 5.513677309239999e-5
5.810135506409999e-5 6.122362003929998e-5 6.451189039820000e-5 6.797492518379999e-5
7.162194289329999e-5 7.546264545260000e-5 7.950724343400001e-5 8.376648258179999e-5
8.825167171310000e-5 9.297471206340001e-5 9.794812815300000e-5 1.031851002500000e-4
1.086994985170000e-4 1.145059189130000e-4 1.206197209700000e-4 1.270570675010000e-4
1.338349663740000e-4 1.409713144310000e-4 1.484849436860000e-4 1.563956698890000e-4
1.647243436040000e-4 1.734929039170000e-4 1.827244349010000e-4 1.924432249920000e-4
2.026748294130000e-4 2.134461358110000e-4 2.247854332550000e-4 2.367224847780000e-4
2.492886036380000e-4 2.625167334830000e-4 2.764415326210000e-4 2.910994625970000e-4
3.065288812960000e-4 3.227701408020000e-4 3.398656902450000e-4 3.578601838919999e-4
3.768005947330000e-4 3.967363338570000e-4 4.177193758790000e-4 4.398043907430000e-4
4.630488821980000e-4 4.875133332930000e-4 5.132613592280000e-4 5.403598679229999e-4
5.688792286949999e-4 5.988934494230000e-4 6.304803626340000e-4 6.637218209400000e-4
6.987039022730000e-4 7.355171254030001e-4 7.742566762370000e-4 8.150226454140000e-4
8.579202777430000e-4 9.030602340530001e-4 9.505588660420001e-4 1.000538504760000e-3
1.053127763360000e-3 1.108461854770000e-3 1.166682925070000e-3 1.227940403180000e-3
1.292391367790000e-3 1.360200932110000e-3 1.431542647540000e-3 1.506598926870000e-3
1.585561488090000e-3 1.668631819620000e-3 1.756021668040000e-3 1.847953549260000e-3
1.944661284210000e-3 2.046390560090000e-3 2.153399518410000e-3 2.265959370880000e-3
2.384355044450000e-3 2.508885856650000e-3 2.639866222700000e-3 2.777626395500000e-3
2.922513240110000e-3 3.074891044000000e-3 3.235142364550000e-3 3.403668915410000e-3
3.580892493179999e-3 3.767255946010000e-3 3.963224185780001e-3 4.169285245610000e-3
4.385951384200000e-3 4.613760238950000e-3 4.853276029580000e-3 5.105090813930000e-3
5.369825797959999e-3 5.648132701610001e-3 5.940695182540000e-3 6.248230319510000e-3
6.571490157260000e-3 6.911263314819999e-3 7.268376659089999e-3 7.643697045460001e-3
8.038133127249999e-3 8.452637235770000e-3 8.888207332650000e-3 9.345889035950000e-3
9.826777721730002e-3 1.033202070220000e-2 1.086281948220000e-2 1.142043209410000e-2
1.200617551340000e-2 1.262142815470000e-2 1.326763244870000e-2 1.394629750070000e-2
1.465900182990000e-2 1.540739619030000e-2 1.619320646980000e-2 1.701823666960000e-2
1.788437195840000e-2 1.879358180200000e-2 1.974792316370000e-2 2.074954377160000e-2
2.180068544980000e-2 2.290368750600000e-2 2.406099017170000e-2 2.527513808510000e-2
2.654878381080000e-2 2.788469138460000e-2 2.928573987380000e-2 3.075492693910000e-2
3.229537238610000e-2 3.391032168790000e-2 3.560314946310000e-2 3.737736288850000e-2
3.923660502400000e-2 4.118465802599999e-2 4.322544622110000e-2 4.536303901060000e-2
4.760165357220000e-2 4.994565732270001e-2 5.239957010079999e-2 5.496806602680000e-2
5.765597499070000e-2 6.046828371480000e-2 6.341013633600000e-2 6.648683444220000e-2
6.970383649720000e-2 7.306675657900000e-2 7.658136235150000e-2 8.025357218400000e-2
8.408945132390000e-2 8.809520702270001e-2 9.227718250560001e-2 9.664184966930002e-2
1.011958003820000e-1 1.059457362480000e-1 1.108984567030000e-1 1.160608452710000e-1
1.214398538340000e-1 1.270424847300000e-1 1.328757704960000e-1 1.389467510660000e-1
1.452624482000000e-1 1.518298369450000e-1 1.586558138760000e-1 1.657471618800000e-1
1.731105112390000e-1 1.807522967190000e-1 1.886787104050000e-1 1.968956499880000e-1
2.054086621870000e-1 2.142228810160000e-1 2.233429605560000e-1 2.327730019120000e-1
2.425164740180000e-1 2.525761279500000e-1 2.629539043980000e-1 2.736508339640000e-1
2.846669299460000e-1 2.960010732650000e-1 3.076508892340000e-1 3.196126158510000e-1
3.318809633390000e-1 3.444489646880000e-1 3.573078169890000e-1 3.704467133760000e-1
3.838526654930000e-1 3.975103164360000e-1 4.114017442140000e-1 4.255062558850000e-1
4.398001726320000e-1 4.542566061760000e-1 4.688452271090000e-1 4.835320259000000e-1
4.982790675560000e-1 5.130442411890001e-1 5.277810060090000e-1 5.424381356280001e-1
5.569594629440000e-1 5.712836282980000e-1 5.853438341330000e-1 5.990676099309999e-1
6.123765918389999e-1 6.251863221470000e-1 6.374060745420000e-1 6.489387119700000e-1
6.596805848880000e-1 6.695214787679999e-1 6.783446208130000e-1 6.860267570660000e-1
6.924383123349999e-1 6.974436466040000e-1 7.009014228970000e-1 7.026651026830000e-1
7.025835860050000e-1 7.005020142800000e-1 6.962627541960000e-1 6.897065810720000e-1
6.806740793269999e-1 6.690072760760000e-1 6.545515210790001e-1 6.371576220470000e-1
6.166842382490000e-1 5.930005272120001e-1 5.659890285580000e-1 5.355487554340001e-1
5.015984471459999e-1 4.640799164050000e-1 4.229614008790000e-1 3.782408020220000e-1
3.299486648930000e-1 2.781507225360000e-1 2.229497995650000e-1 1.644868454150000e-1
1.029408532860000e-1 3.852742295490000e-2 -2.850424639880000e-2 -9.787608172450001e-2
-1.692876108940000e-1 -2.424240312930000e-1 -3.169654431490000e-1 -3.925964400180000e-1
-4.690147524080000e-1 -5.459370252430000e-1 -6.230990987140000e-1 -7.002474211200001e-1
-7.771175914650001e-1 -8.533957691540000e-1 -9.286592498600001e-1 -1.002294640040000e0
-1.073396974680000e0 -1.140662706740000e0 -1.202306677720000e0 -1.256062396520000e0
-1.299369856710000e0 -1.329770148140000e0 -1.344818751920000e0 -1.342026353070000e0
-1.319026517560000e0 -1.273824599940000e0 -1.205117916790000e0 -1.112676668820000e0
-9.977577118960001e-1 -8.634988807890000e-1 -7.152107596990001e-1 -5.604476360510001e-1
-4.087070634690000e-1 -2.705919407400000e-1 -1.562978558530000e-1 -7.340914851120001e-2
-2.428049532160000e-2 -3.876737652690000e-3 -4.697106463970000e-5 0.000000000000000e0
0.000000000000000e0 0.000000000000000e0 0.000000000000000e0 0.000000000000000e0
0.000000000000000e0 0.000000000000000e0 0.000000000000000e0 0.000000000000000e0
0.000000000000000e0 0.000000000000000e0 0.000000000000000e0 0.000000000000000e0
0.000000000000000e0 0.000000000000000e0 0.000000000000000e0 0.000000000000000e0
0.000000000000000e0 0.000000000000000e0 0.000000000000000e0 0.000000000000000e0
0.000000000000000e0 0.000000000000000e0 0.000000000000000e0 0.000000000000000e0
0.000000000000000e0 0.000000000000000e0 0.000000000000000e0 0.000000000000000e0
0.000000000000000e0 0.000000000000000e0 0.000000000000000e0 0.000000000000000e0
0.000000000000000e0 0.000000000000000e0 0.000000000000000e0 0.000000000000000e0
0.000000000000000e0 0.000000000000000e0 0.000000000000000e0 0.000000000000000e0
0.000000000000000e0 0.000000000000000e0 0.000000000000000e0 0.000000000000000e0
0.000000000000000e0 0.000000000000000e0 0.000000000000000e0 0.000000000000000e0
0.000000000000000e0 0.000000000000000e0 0.000000000000000e0 0.000000000000000e0
0.000000000000000e0 0.000000000000000e0 0.000000000000000e0 0.000000000000000e0
0.000000000000000e0 0.000000000000000e0 0.000000000000000e0 0.000000000000000e0
0.000000000000000e0 0.000000000000000e0 0.000000000000000e0 0.000000000000000e0
0.000000000000000e0 0.000000000000000e0 0.000000000000000e0 0.000000000000000e0
0.000000000000000e0 0.000000000000000e0 0.000000000000000e0 0.000000000000000e0
0.000000000000000e0 0.000000000000000e0 0.000000000000000e0 0.000000000000000e0
0.000000000000000e0 0.000000000000000e0 0.000000000000000e0 0.000000000000000e0
0.000000000000000e0 0.000000000000000e0 0.000000000000000e0 0.000000000000000e0
0.000000000000000e0 0.000000000000000e0 0.000000000000000e0 0.000000000000000e0
0.000000000000000e0 0.000000000000000e0 0.000000000000000e0 0.000000000000000e0
0.000000000000000e0 0.000000000000000e0 0.000000000000000e0 0.000000000000000e0
0.000000000000000e0 0.000000000000000e0 0.000000000000000e0 0.000000000000000e0
0.000000000000000e0 0.000000000000000e0 0.000000000000000e0 0.000000000000000e0
0.000000000000000e0 0.000000000000000e0 0.000000000000000e0 0.000000000000000e0
0.000000000000000e0 0.000000000000000e0 0.000000000000000e0 0.000000000000000e0
0.000000000000000e0 0.000000000000000e0 0.000000000000000e0 0.000000000000000e0
0.000000000000000e0 0.000000000000000e0 0.000000000000000e0 0.000000000000000e0
0.000000000000000e0 0.000000000000000e0 0.000000000000000e0 0.000000000000000e0
0.000000000000000e0 0.000000000000000e0 0.000000000000000e0 0.000000000000000e0
0.000000000000000e0 0.000000000000000e0 0.000000000000000e0 0.000000000000000e0
0.000000000000000e0 0.000000000000000e0 0.000000000000000e0 0.000000000000000e0
0.000000000000000e0 0.000000000000000e0 0.000000000000000e0 0.000000000000000e0
0.000000000000000e0 0.000000000000000e0 0.000000000000000e0 0.000000000000000e0
0.000000000000000e0 0.000000000000000e0 0.000000000000000e0 0.000000000000000e0
0.000000000000000e0 0.000000000000000e0 0.000000000000000e0 0.000000000000000e0
0.000000000000000e0 0.000000000000000e0 0.000000000000000e0 0.000000000000000e0
0.000000000000000e0 0.000000000000000e0 0.000000000000000e0 0.000000000000000e0
0.000000000000000e0 0.000000000000000e0 0.000000000000000e0 0.000000000000000e0
0.000000000000000e0 0.000000000000000e0 0.000000000000000e0 0.000000000000000e0
0.000000000000000e0 0.000000000000000e0 0.000000000000000e0 0.000000000000000e0
0.000000000000000e0 0.000000000000000e0 0.000000000000000e0 0.000000000000000e0
0.000000000000000e0 0.000000000000000e0 0.000000000000000e0 0.000000000000000e0
0.000000000000000e0 0.000000000000000e0 0.000000000000000e0 0.000000000000000e0
0.000000000000000e0 0.000000000000000e0 0.000000000000000e0 0.000000000000000e0
0.000000000000000e0 0.000000000000000e0 0.000000000000000e0 0.000000000000000e0
0.000000000000000e0 0.000000000000000e0 0.000000000000000e0 0.000000000000000e0
0.000000000000000e0 0.000000000000000e0 0.000000000000000e0 0.000000000000000e0
0.000000000000000e0 0.000000000000000e0 0.000000000000000e0 0.000000000000000e0
0.000000000000000e0 0.000000000000000e0 0.000000000000000e0 0.000000000000000e0
0.000000000000000e0 0.000000000000000e0 0.000000000000000e0 0.000000000000000e0
0.000000000000000e0 0.000000000000000e0 0.000000000000000e0 0.000000000000000e0
0.000000000000000e0 0.000000000000000e0 0.000000000000000e0 0.000000000000000e0
0.000000000000000e0 0.000000000000000e0 0.000000000000000e0 0.000000000000000e0
0.000000000000000e0 0.000000000000000e0 0.000000000000000e0 0.000000000000000e0
0.000000000000000e0 0.000000000000000e0 0.000000000000000e0 0.000000000000000e0
0.000000000000000e0 0.000000000000000e0 0.000000000000000e0 0.000000000000000e0
0.000000000000000e0 0.000000000000000e0 0.000000000000000e0 0.000000000000000e0
0.000000000000000e0 0.000000000000000e0 0.000000000000000e0 0.000000000000000e0
0.000000000000000e0 0.000000000000000e0 0.000000000000000e0 0.000000000000000e0
0.000000000000000e0 0.000000000000000e0 0.000000000000000e0 0.000000000000000e0
0.000000000000000e0
</PP_QIJ.2.3>
<PP_QIJ.2.4 first_index="2" second_index="4" composite_index="8">
0.000000000000000e0 8.451085734350002e-15 6.935705823319999e-14 2.401506683169999e-13
5.840507063410000e-13 1.170475478080000e-12 2.075481962730000e-12 3.382232138990000e-12
5.181488047999999e-12 7.572137248650000e-12 1.066175041320000e-11 1.456717290730000e-11
1.941515230150000e-11 2.534300386770000e-11 3.249931622850000e-11 4.104469944689999e-11
5.115257796920001e-11 6.301003096670001e-11 7.681868276330000e-11 9.279564618180000e-11
1.111745217980000e-10 1.322064562580000e-10 1.561612629760000e-10 1.833286087380000e-10
2.140192698890000e-10 2.485664620190001e-10 2.873272472670001e-10 3.306840235640001e-10
3.790461004070000e-10 4.328513659860000e-10 4.925680507440000e-10 5.586965927389999e-10
6.317716104619999e-10 7.123639890830001e-10 8.010830863839997e-10 8.985790650409999e-10
1.005545358210000e-9 1.122721275810000e-9 1.250894759210000e-9 1.390905292590000e-9
1.543646979510000e-9 1.710071793840000e-9 1.891193014580000e-9 2.088088854710000e-9
2.301906294680000e-9 2.533865131790000e-9 2.785262257200000e-9 3.057476173140000e-9
3.351971763280001e-9 3.670305330320001e-9 4.014129915100000e-9 4.385200912770001e-9
4.785382002150000e-9 5.216651405300000e-9 5.681108495260000e-9 6.180980770900001e-9
6.718631218760001e-9 7.296566083010001e-9 7.917443065440000e-9 8.584079978980002e-9
9.299463879210002e-9 1.006676069970000e-8 1.088932541850000e-8 1.177071278440000e-8
1.271468863330000e-8 1.372524182630000e-8 1.480659684330000e-8 1.596322706730000e-8
1.719986879690000e-8 1.852153602540000e-8 1.993353602870000e-8 2.144148580490000e-8
2.305132941210000e-8 2.476935625090000e-8 2.660222034500000e-8 2.855696067050000e-8
3.064102259310000e-8 3.286228047010001e-8 3.522906148060001e-8 3.775017075050000e-8
4.043491784000000e-8 4.329314466780000e-8 4.633525494780001e-8 4.957224522069998e-8
5.301573756310001e-8 5.667801406719999e-8 6.057205318199999e-8 6.471156801799999e-8
6.911104671930000e-8 7.378579501240001e-8 7.875198104940000e-8 8.402668266630000e-8
8.962793718640000e-8 9.557479390269998e-8 1.018873693840000e-7 1.085869057510000e-7
1.156958320880000e-7 1.232378291480000e-7 1.312378975260000e-7 1.397224295040000e-7
1.487192847270000e-7 1.582578699510000e-7 1.683692230520000e-7 1.790861015390000e-7
1.904430757970000e-7 2.024766273190000e-7 2.152252521920000e-7 2.287295701100000e-7
2.430324392070001e-7 2.581790770270000e-7 2.742171879460000e-7 2.911970973910000e-7
3.091718932130000e-7 3.281975746040000e-7 3.483332089390001e-7 3.696410969770000e-7
3.921869468540000e-7 4.160400573370000e-7 4.412735108300001e-7 4.679643766370000e-7
4.961939250359999e-7 5.260478527329999e-7 5.576165202820000e-7 5.909952021260000e-7
6.262843499050000e-7 6.635898697420000e-7 7.030234142350000e-7 7.447026899449999e-7
7.887517811770000e-7 8.353014909310001e-7 8.844896999189999e-7 9.364617445930000e-7
9.913708152040000e-7 1.049378374930000e-6 1.110654601170000e-6 1.175378850240000e-6
1.243740146580000e-6 1.315937697890000e-6 1.392181437470000e-6 1.472692595240000e-6
1.557704298920000e-6 1.647462207000000e-6 1.742225175070000e-6 1.842265957450000e-6
1.947871945710000e-6 2.059345946330001e-6 2.177006999210000e-6 2.301191239550000e-6
2.432252805000000e-6 2.570564790790000e-6 2.716520255090000e-6 2.870533277440001e-6
3.033040072880000e-6 3.204500164849999e-6 3.385397619740000e-6 3.576242346580000e-6
3.777571465050000e-6 3.989950745519999e-6 4.213976124849999e-6 4.450275301980000e-6
4.699509417380000e-6 4.962374820870002e-6 5.239604932289998e-6 5.531972200110000e-6
5.840290162850000e-6 6.165415618870000e-6 6.508250910089998e-6 6.869746325740000e-6
7.250902632200002e-6 7.652773735800000e-6 8.076469485219999e-6 8.523158621070001e-6
8.994071880220000e-6 9.490505262850000e-6 1.001382347100000e-5 1.056546352720000e-5
1.114693858310000e-5 1.175984192750000e-5 1.240585120430000e-5 1.308673285180000e-5
1.380434677390000e-5 1.456065125710000e-5 1.535770814310000e-5 1.619768827430000e-5
1.708287722230000e-5 1.801568131750000e-5 1.899863399380000e-5 2.003440246460000e-5
2.112579474840000e-5 2.227576706160000e-5 2.348743159770000e-5 2.476406471260000e-5
2.610911553810000e-5 2.752621504480000e-5 2.901918557860000e-5 3.059205089450000e-5
3.224904671470000e-5 3.399463183700000e-5 3.583349982320000e-5 3.777059129660000e-5
3.981110688070000e-5 4.196052081280000e-5 4.422459526610000e-5 4.660939541859999e-5
4.912130530640001e-5 5.176704450280000e-5 5.455368566450001e-5 5.748867299190000e-5
6.057984164910000e-5 6.383543819349999e-5 6.726414206769999e-5 7.087508820810000e-5
7.467789082779999e-5 7.868266843460001e-5 8.290007014780000e-5 8.734130337989999e-5
9.201816295529998e-5 9.694306173770000e-5 1.021290628450000e-4 1.075899135350000e-4
1.133400808420000e-4 1.193947890620000e-4 1.257700591750000e-4 1.324827503090000e-4
1.395506033390000e-4 1.469922867540000e-4 1.548274448750000e-4 1.630767485730000e-4
1.717619486010000e-4 1.809059316750000e-4 1.905327794420000e-4 2.006678304890000e-4
2.113377455420000e-4 2.225705760150000e-4 2.343958360890000e-4 2.468445784900000e-4
2.599494741510000e-4 2.737448959730000e-4 2.882670068670000e-4 3.035538523120000e-4
3.196454576480000e-4 3.365839303450000e-4 3.544135674960000e-4 3.731809687980001e-4
3.929351552960000e-4 4.137276941740000e-4 4.356128299070000e-4 4.586476220720001e-4
4.828920901680000e-4 5.084093657830000e-4 5.352658524739999e-4 5.635313937460000e-4
5.932794495180000e-4 6.245872815139998e-4 6.575361479969999e-4 6.922115083210000e-4
7.287032377680001e-4 7.671058531850000e-4 8.075187499329999e-4 8.500464507130001e-4
8.947988668270000e-4 9.418915724900000e-4 9.914460928120000e-4 1.043590206100000e-3
1.098458261210000e-3 1.156191510530000e-3 1.216938459590000e-3 1.280855233780000e-3
1.348105963230000e-3 1.418863186530000e-3 1.493308274360000e-3 1.571631873670000e-3
1.654034373720000e-3 1.740726394630000e-3 1.831929299770000e-3 1.927875732870000e-3
2.028810181050000e-3 2.134989564960000e-3 2.246683857170000e-3 2.364176730150000e-3
2.487766235060000e-3 2.617765512790000e-3 2.754503538490000e-3 2.898325901290000e-3
3.049595620450000e-3 3.208693999630000e-3 3.376021520830000e-3 3.551998779640000e-3
3.737067463550000e-3 3.931691374940000e-3 4.136357500650000e-3 4.351577129950001e-3
4.577887022680000e-3 4.815850629670000e-3 5.066059367250000e-3 5.329133947870001e-3
5.605725768939999e-3 5.896518361920000e-3 6.202228903690000e-3 6.523609792389999e-3
6.861450289880000e-3 7.216578232780000e-3 7.589861814440000e-3 7.982211439809999e-3
8.394581655349999e-3 8.827973156050001e-3 9.283434871590000e-3 9.762066133489999e-3
1.026501892530000e-2 1.079350021750000e-2 1.134877438870000e-2 1.193216573460000e-2
1.254506106700000e-2 1.318891240160000e-2 1.386523973910000e-2 1.457563393670000e-2
1.532175967280000e-2 1.610535850380000e-2 1.692825201300000e-2 1.779234505100000e-2
1.869962906570000e-2 1.965218552060000e-2 2.065218939880000e-2 2.170191279010000e-2
2.280372855570000e-2 2.396011406810000e-2 2.517365501870000e-2 2.644704928710000e-2
2.778311086450000e-2 2.918477382140000e-2 3.065509630990000e-2 3.219726458850000e-2
3.381459705500000e-2 3.551054827300000e-2 3.728871297430000e-2 3.915283001710001e-2
4.110678627900000e-2 4.315462045910000e-2 4.530052676320000e-2 4.754885844080000e-2
4.990413114060000e-2 5.237102604780000e-2 5.495439276170000e-2 5.765925186880000e-2
6.049079716170001e-2 6.345439745000001e-2 6.655559790360000e-2 6.980012086230001e-2
7.319386604369999e-2 7.674291006900001e-2 8.045350522500000e-2 8.433207737100000e-2
8.838522289170001e-2 9.261970458850000e-2 9.704244639619999e-2 1.016605267990000e-1
1.064811708120000e-1 1.115117403860000e-1 1.167597230790000e-1 1.222327188280000e-1
1.279384246560000e-1 1.338846171010000e-1 1.400791321920000e-1 1.465298427460000e-1
1.532446327580000e-1 1.602313686460000e-1 1.674978671020000e-1 1.750518592770000e-1
1.829009510220000e-1 1.910525788950000e-1 1.995139616190000e-1 2.082920466820000e-1
2.173934517470000e-1 2.268244005320000e-1 2.365906528030000e-1 2.466974281410000e-1
2.571493231030000e-1 2.679502214310000e-1 2.791031969290000e-1 2.906104086570000e-1
3.024729881020000e-1 3.146909179650000e-1 3.272629022690000e-1 3.401862274900000e-1
3.534566144480000e-1 3.670680607570000e-1 3.810126736640000e-1 3.952804931850000e-1
4.098593055309999e-1 4.247344468800000e-1 4.398885976960000e-1 4.553015679140000e-1
4.709500734230000e-1 4.868075045150000e-1 5.028436871020000e-1 5.190246377590000e-1
5.353123139010000e-1 5.516643606750000e-1 5.680338564760000e-1 5.843690593620000e-1
6.006131570190000e-1 6.167040233810001e-1 6.325739854990000e-1 6.481496047570000e-1
6.633514771280000e-1 6.780940577710000e-1 6.922855159159999e-1 7.058276267130000e-1
7.186157074100000e-1 7.305386060060000e-1 7.414787512840000e-1 7.513122738690000e-1
7.599092087080001e-1 7.671337900200000e-1 7.728448503710000e-1 7.768963359350000e-1
7.791379503010000e-1 7.794159391540000e-1 7.775740278190000e-1 7.734545229289999e-1
7.668995881430000e-1 7.577527019170000e-1 7.458603026140000e-1 7.310736225330000e-1
7.132507077670000e-1 6.922586147830000e-1 6.679757673370000e-1 6.402944485730000e-1
6.091233928670000e-1 5.743904303339999e-1 5.360451239210001e-1 4.940613252330000e-1
4.484395612620000e-1 3.992091510080000e-1 3.464299402520000e-1 2.901935364330000e-1
2.306239267950000e-1 1.678773752930000e-1 1.021415223510000e-1 3.363366206579999e-2
-3.740174876170000e-2 -1.106961787410000e-1 -1.859603744890000e-1 -2.628874317250000e-1
-3.411547704470000e-1 -4.204238799900001e-1 -5.003363464360000e-1 -5.805043276339999e-1
-6.604933794980000e-1 -7.397955001710001e-1 -8.177906809740000e-1 -8.936965134670000e-1
-9.665081013400000e-1 -1.034935587060000e0 -1.097355439250000e0 -1.151806369030000e0
-1.196082125620000e0 -1.227939843940000e0 -1.245070486150000e0 -1.245129052990000e0
-1.225896518580000e0 -1.185513826660000e0 -1.122781816910000e0 -1.037517048710000e0
-9.309371541540001e-1 -8.060267545929999e-1 -6.678061653329999e-1 -5.233926653020000e-1
-3.817140168910000e-1 -2.527200556980000e-1 -1.459652342120000e-1 -6.854836801720000e-2
-2.266937642350000e-2 -3.618862323430000e-3 -4.373396038899999e-5 0.000000000000000e0
0.000000000000000e0 0.000000000000000e0 0.000000000000000e0 0.000000000000000e0
0.000000000000000e0 0.000000000000000e0 0.000000000000000e0 0.000000000000000e0
0.000000000000000e0 0.000000000000000e0 0.000000000000000e0 0.000000000000000e0
0.000000000000000e0 0.000000000000000e0 0.000000000000000e0 0.000000000000000e0
0.000000000000000e0 0.000000000000000e0 0.000000000000000e0 0.000000000000000e0
0.000000000000000e0 0.000000000000000e0 0.000000000000000e0 0.000000000000000e0
0.000000000000000e0 0.000000000000000e0 0.000000000000000e0 0.000000000000000e0
0.000000000000000e0 0.000000000000000e0 0.000000000000000e0 0.000000000000000e0
0.000000000000000e0 0.000000000000000e0 0.000000000000000e0 0.000000000000000e0
0.000000000000000e0 0.000000000000000e0 0.000000000000000e0 0.000000000000000e0
0.000000000000000e0 0.000000000000000e0 0.000000000000000e0 0.000000000000000e0
0.000000000000000e0 0.000000000000000e0 0.000000000000000e0 0.000000000000000e0
0.000000000000000e0 0.000000000000000e0 0.000000000000000e0 0.000000000000000e0
0.000000000000000e0 0.000000000000000e0 0.000000000000000e0 0.000000000000000e0
0.000000000000000e0 0.000000000000000e0 0.000000000000000e0 0.000000000000000e0
0.000000000000000e0 0.000000000000000e0 0.000000000000000e0 0.000000000000000e0
0.000000000000000e0 0.000000000000000e0 0.000000000000000e0 0.000000000000000e0
0.000000000000000e0 0.000000000000000e0 0.000000000000000e0 0.000000000000000e0
0.000000000000000e0 0.000000000000000e0 0.000000000000000e0 0.000000000000000e0
0.000000000000000e0 0.000000000000000e0 0.000000000000000e0 0.000000000000000e0
0.000000000000000e0 0.000000000000000e0 0.000000000000000e0 0.000000000000000e0
0.000000000000000e0 0.000000000000000e0 0.000000000000000e0 0.000000000000000e0
0.000000000000000e0 0.000000000000000e0 0.000000000000000e0 0.000000000000000e0
0.000000000000000e0 0.000000000000000e0 0.000000000000000e0 0.000000000000000e0
0.000000000000000e0 0.000000000000000e0 0.000000000000000e0 0.000000000000000e0
0.000000000000000e0 0.000000000000000e0 0.000000000000000e0 0.000000000000000e0
0.000000000000000e0 0.000000000000000e0 0.000000000000000e0 0.000000000000000e0
0.000000000000000e0 0.000000000000000e0 0.000000000000000e0 0.000000000000000e0
0.000000000000000e0 0.000000000000000e0 0.000000000000000e0 0.000000000000000e0
0.000000000000000e0 0.000000000000000e0 0.000000000000000e0 0.000000000000000e0
0.000000000000000e0 0.000000000000000e0 0.000000000000000e0 0.000000000000000e0
0.000000000000000e0 0.000000000000000e0 0.000000000000000e0 0.000000000000000e0
0.000000000000000e0 0.000000000000000e0 0.000000000000000e0 0.000000000000000e0
0.000000000000000e0 0.000000000000000e0 0.000000000000000e0 0.000000000000000e0
0.000000000000000e0 0.000000000000000e0 0.000000000000000e0 0.000000000000000e0
0.000000000000000e0 0.000000000000000e0 0.000000000000000e0 0.000000000000000e0
0.000000000000000e0 0.000000000000000e0 0.000000000000000e0 0.000000000000000e0
0.000000000000000e0 0.000000000000000e0 0.000000000000000e0 0.000000000000000e0
0.000000000000000e0 0.000000000000000e0 0.000000000000000e0 0.000000000000000e0
0.000000000000000e0 0.000000000000000e0 0.000000000000000e0 0.000000000000000e0
0.000000000000000e0 0.000000000000000e0 0.000000000000000e0 0.000000000000000e0
0.000000000000000e0 0.000000000000000e0 0.000000000000000e0 0.000000000000000e0
0.000000000000000e0 0.000000000000000e0 0.000000000000000e0 0.000000000000000e0
0.000000000000000e0 0.000000000000000e0 0.000000000000000e0 0.000000000000000e0
0.000000000000000e0 0.000000000000000e0 0.000000000000000e0 0.000000000000000e0
0.000000000000000e0 0.000000000000000e0 0.000000000000000e0 0.000000000000000e0
0.000000000000000e0 0.000000000000000e0 0.000000000000000e0 0.000000000000000e0
0.000000000000000e0 0.000000000000000e0 0.000000000000000e0 0.000000000000000e0
0.000000000000000e0 0.000000000000000e0 0.000000000000000e0 0.000000000000000e0
0.000000000000000e0 0.000000000000000e0 0.000000000000000e0 0.000000000000000e0
0.000000000000000e0 0.000000000000000e0 0.000000000000000e0 0.000000000000000e0
0.000000000000000e0 0.000000000000000e0 0.000000000000000e0 0.000000000000000e0
0.000000000000000e0 0.000000000000000e0 0.000000000000000e0 0.000000000000000e0
0.000000000000000e0 0.000000000000000e0 0.000000000000000e0 0.000000000000000e0
0.000000000000000e0 0.000000000000000e0 0.000000000000000e0 0.000000000000000e0
0.000000000000000e0 0.000000000000000e0 0.000000000000000e0 0.000000000000000e0
0.000000000000000e0 0.000000000000000e0 0.000000000000000e0 0.000000000000000e0
0.000000000000000e0 0.000000000000000e0 0.000000000000000e0 0.000000000000000e0
0.000000000000000e0 0.000000000000000e0 0.000000000000000e0 0.000000000000000e0
0.000000000000000e0 0.000000000000000e0 0.000000000000000e0 0.000000000000000e0
0.000000000000000e0 0.000000000000000e0 0.000000000000000e0 0.000000000000000e0
0.000000000000000e0 0.000000000000000e0 0.000000000000000e0 0.000000000000000e0
0.000000000000000e0 0.000000000000000e0 0.000000000000000e0 0.000000000000000e0
0.000000000000000e0
</PP_QIJ.2.4>
<PP_QIJ.3.3 first_index="3" second_index="3" composite_index="6">
0.000000000000000e0 3.724356306100001e-9 1.515316413540000e-8 3.468157012900000e-8
6.272055898310001e-8 9.969753737289999e-8 1.460569386560000e-7 2.022608490840000e-7
2.687896562749998e-7 3.461427207200000e-7 4.348390711450000e-7 5.354181245410001e-7
6.484404317410000e-7 7.744884494380000e-7 9.141673395470001e-7 1.068105796900000e-6
1.236956906220000e-6 1.421399029470000e-6 1.622136724500000e-6 1.839901696310000e-6
2.075453781780000e-6 2.329581969290000e-6 2.603105454320000e-6 2.896874732270000e-6
3.211772729920001e-6 3.548715976670000e-6 3.908655817220001e-6 4.292579666820000e-6
4.701512310910000e-6 5.136517250370000e-6 5.598698094240000e-6 6.089200001370000e-6
6.609211172810001e-6 7.159964396710000e-6 7.742738647440000e-6 8.358860741019999e-6
9.009707048560001e-6 9.696705270010000e-6 1.042133627010000e-5 1.118513597860000e-5
1.198969735770000e-5 1.283667243770000e-5 1.372777442460000e-5 1.466477988140000e-5
1.564953098590000e-5 1.668393786740000e-5 1.776998102560000e-5 1.890971383360000e-5
2.010526512940000e-5 2.135884189700000e-5 2.267273204250000e-5 2.404930726620000e-5
2.549102603550000e-5 2.700043666250000e-5 2.858018048790001e-5 3.023299517690000e-5
3.196171813029999e-5 3.376929001420001e-5 3.565875841360000e-5 3.763328161320001e-5
3.969613250990000e-5 4.185070266240000e-5 4.410050648199999e-5 4.644918556889999e-5
4.890051320060000e-5 5.145839897629999e-5 5.412689362340000e-5 5.691019397130001e-5
5.981264809900001e-5 6.283876066119999e-5 6.599319840090001e-5 6.928079585340001e-5
7.270656124899999e-5 7.627568262150000e-5 7.999353412860000e-5 8.386568259329998e-5
8.789789427220001e-5 9.209614185939998e-5 9.646661173420000e-5 1.010157114610000e-4
1.057500775490000e-4 1.106765834830000e-4 1.158023480350000e-4 1.211347438570000e-4
1.266814063850000e-4 1.324502430400000e-4 1.384494427580000e-4 1.446874858420000e-4
1.511731541680000e-4 1.579155417340000e-4 1.649240655820000e-4 1.722084770970000e-4
1.797788736980000e-4 1.876457109370000e-4 1.958198150120000e-4 2.043123957270000e-4
2.131350598830000e-4 2.222998251520000e-4 2.318191344170000e-4 2.417058706240000e-4
2.519733721360000e-4 2.626354486240000e-4 2.737063975160000e-4 2.852010210040000e-4
2.971346436500000e-4 3.095231305960001e-4 3.223829064119999e-4 3.357309745900000e-4
3.495849377169999e-4 3.639630183460000e-4 3.788840805930000e-4 3.943676524760000e-4
4.104339490340000e-4 4.271038962390000e-4 4.443991557470000e-4 4.623421504950000e-4
4.809560911929999e-4 5.002650037199999e-4 5.202937574900001e-4 5.410680947740000e-4
5.626146610580001e-4 5.849610364369999e-4 6.081357681070000e-4 6.321684039670000e-4
6.570895273990001e-4 6.829307932369999e-4 7.097249649890001e-4 7.375059533429999e-4
7.663088560049999e-4 7.961699989100000e-4 8.271269788670001e-4 8.592187076669999e-4
8.924854577260000e-4 9.269689092949999e-4 9.627121993119999e-4 9.997599719309999e-4
1.038158430810000e-3 1.077955393180000e-3 1.119200345820000e-3 1.161944502930000e-3
1.206240866040000e-3 1.252144285920000e-3 1.299711526700000e-3 1.349001332180000e-3
1.400074494420000e-3 1.452993924690000e-3 1.507824726880000e-3 1.564634273470000e-3
1.623492284040000e-3 1.684470906610000e-3 1.747644801650000e-3 1.813091229120000e-3
1.880890138380000e-3 1.951124261320000e-3 2.023879208630000e-3 2.099243569400000e-3
2.177309014160000e-3 2.258170401470000e-3 2.341925888180000e-3 2.428677043520000e-3
2.518528967040000e-3 2.611590410690000e-3 2.707973905090000e-3 2.807795890120000e-3
2.911176850000000e-3 3.018241453070000e-3 3.129118696360000e-3 3.243942055080000e-3
3.362849637310000e-3 3.485984344050000e-3 3.613494034640000e-3 3.745531698000000e-3
3.882255629709999e-3 4.023829615130000e-3 4.170423118900000e-3 4.322211480880000e-3
4.479376118850000e-3 4.642104738150000e-3 4.810591548569999e-3 4.985037488610001e-3
5.165650457490000e-3 5.352645555089999e-3 5.546245330160000e-3 5.746680036960000e-3
5.954187900810000e-3 6.169015392640000e-3 6.391417513010000e-3 6.621658085809999e-3
6.860010062040000e-3 7.106755834039999e-3 7.362187560330000e-3 7.626607501749999e-3
7.900328368900000e-3 8.183673681620000e-3 8.476978140669999e-3 8.780588012090000e-3
9.094861524730000e-3 9.420169281340002e-3 9.756894683640001e-3 1.010543437190000e-2
1.046619867970000e-2 1.083961210380000e-2 1.122611379000000e-2 1.162615803630000e-2
1.204021481230000e-2 1.246877029660000e-2 1.291232743230000e-2 1.337140650170000e-2
1.384654572050000e-2 1.433830185140000e-2 1.484725083950000e-2 1.537398846880000e-2
1.591913104060000e-2 1.648331607540000e-2 1.706720303840000e-2 1.767147408890000e-2
1.829683485610000e-2 1.894401524020000e-2 1.961377024040000e-2 2.030688081170000e-2
2.102415474970000e-2 2.176642760530000e-2 2.253456363030000e-2 2.332945675450000e-2
2.415203159590000e-2 2.500324450400000e-2 2.588408463910000e-2 2.679557508630000e-2
2.773877400780000e-2 2.871477583320000e-2 2.972471248880000e-2 3.076975466890000e-2
3.185111314820000e-2 3.297004013860000e-2 3.412783069000000e-2 3.532582413830000e-2
3.656540560020000e-2 3.784800751810000e-2 3.917511125530000e-2 4.054824874340000e-2
4.196900418420000e-2 4.343901580680000e-2 4.495997768220001e-2 4.653364159690000e-2
4.816181898740000e-2 4.984638293720000e-2 5.158927023920000e-2 5.339248352320000e-2
5.525809345340001e-2 5.718824099520000e-2 5.918513975540000e-2 6.125107839629999e-2
6.338842312770000e-2 6.559962027700000e-2 6.788719894049999e-2 7.025377371950001e-2
7.270204754089999e-2 7.523481456659999e-2 7.785496319420000e-2 8.056547914970000e-2
8.336944867700000e-2 8.627006182480001e-2 8.927061583450000e-2 9.237451863180000e-2
9.558529242370000e-2 9.890657740449999e-2 1.023421355730000e-1 1.058958546660000e-1
1.095717522000000e-1 1.133739796480000e-1 1.173068267220000e-1 1.213747257910000e-1
1.255822564220000e-1 1.299341500540000e-1 1.344352948040000e-1 1.390907404080000e-1
1.439057033010000e-1 1.488855718380000e-1 1.540359116600000e-1 1.593624712030000e-1
1.648711873550000e-1 1.705681912700000e-1 1.764598143250000e-1 1.825525942420000e-1
1.888532813560000e-1 1.953688450490000e-1 2.021064803420000e-1 2.090736146480000e-1
2.162779146850000e-1 2.237272935540000e-1 2.314299179850000e-1 2.393942157360000e-1
2.476288831660000e-1 2.561428929660000e-1 2.649455020560000e-1 2.740462596340000e-1
2.834550153990000e-1 2.931819279150000e-1 3.032374731390000e-1 3.136324530920000e-1
3.243780046820000e-1 3.354856086620000e-1 3.469670987220000e-1 3.588346707130000e-1
3.711008919870000e-1 3.837787108480000e-1 3.968814661030000e-1 4.104228967030000e-1
4.244171514620000e-1 4.388787988370000e-1 4.538228367539999e-1 4.692647024680000e-1
4.852202824310000e-1 5.017059221530000e-1 5.187384360270000e-1 5.363351171030000e-1
5.545137467709999e-1 5.732926043380000e-1 5.926904764500000e-1 6.127266663449999e-1
6.334210028740000e-1 6.547938492730000e-1 6.768661116240001e-1 6.996592469679999e-1
7.231952710140001e-1 7.474967653820000e-1 7.725868843340001e-1 7.984893609150000e-1
8.252285124440000e-1 8.528292452710000e-1 8.813170587320000e-1 9.107180482040000e-1
9.410589071770000e-1 9.723669282410000e-1 1.004670002890000e0 1.037996620000000e0
1.072375862960000e0 1.107837405130000e0 1.144411503760000e0 1.182128991960000e0
1.221021268810000e0 1.261120287200000e0 1.302458539450000e0 1.345069040440000e0
1.388985307930000e0 1.434241340170000e0 1.480871590220000e0 1.528910937040000e0
1.578394652960000e0 1.629358367290000e0 1.681838025860000e0 1.735869846130000e0
1.791490267610000e0 1.848735897300000e0 1.907643449740000e0 1.968249681400000e0
2.030591318980000e0 2.094704981340000e0 2.160627094500000e0 2.228393799390000e0
2.298040851980000e0 2.369603515100000e0 2.443116441710000e0 2.518613548980000e0
2.596127882710000e0 2.675691471470000e0 2.757335169980000e0 2.841088491130000e0
2.926979425920000e0 3.015034250800000e0 3.105277321720000e0 3.197730854130000e0
3.292414688370000e0 3.389346039550000e0 3.488539231300000e0 3.590005412630000e0
3.693752256910000e0 3.799783642530000e0 3.908099314060000e0 4.018694523330000e0
4.131559649520000e0 4.246679797460000e0 4.364034373300000e0 4.483596636800000e0
4.605333229520000e0 4.729203678140000e0 4.855159872230000e0 4.983145516080000e0
5.113095553980000e0 5.244935568760000e0 5.378581153350000e0 5.513937255580000e0
5.650897496500000e0 5.789343462930000e0 5.929143975340000e0 6.070154332610000e0
6.212215535770000e0 6.355153493590000e0 6.498778213520000e0 6.642882982590000e0
6.787243543770000e0 6.931617274680000e0 7.075742376980000e0 7.219337086190000e0
7.362098913940000e0 7.503703936250000e0 7.643806144330000e0 7.782036876360000e0
7.918004352090000e0 8.051293334760000e0 8.181464948160000e0 8.308056680220000e0
8.430582607560000e0 8.548533879320001e0 8.661379501350000e0 8.768567465000000e0
8.869526266930000e0 8.963666867710000e0 9.050385137019999e0 9.129064831919999e0
9.199081150550001e0 9.259804897310000e0 9.310607285410001e0 9.350865388270000e0
9.379968232370000e0 9.397323498640000e0 9.402364768380000e0 9.394559210820001e0
9.373415563440000e0 9.338492202819999e0 9.289405043610000e0 9.225834938340000e0
9.147534183199999e0 9.054331670550001e0 8.946136172570000e0 8.822937203440000e0
8.684802900919999e0 8.531874409649999e0 8.364356357809999e0 8.182503221479999e0
7.986601695510000e0 7.776949665920000e0 7.553833036700000e0 7.317502523560000e0
7.068153591160000e0 6.805913945650000e0 6.530844303150000e0 6.242959335780000e0
5.942276380830000e0 5.628899054850000e0 5.303140316010000e0 4.965683143200000e0
4.617764346530000e0 4.261344301830000e0 3.899186958250000e0 3.534711966080000e0
3.171411819530000e0 2.811783516460000e0 2.458194276590000e0 2.113483633860000e0
1.781055609610000e0 1.464878134150000e0 1.169411720110000e0 8.994423400130000e-1
6.597920053010000e-1 4.548838172580000e-1 2.881526095960000e-1 1.613264202000000e-1
7.366812984650000e-2 2.136511236290000e-2 -2.626259906530000e-3 -7.889588031880001e-3
-4.690099032800000e-3 -1.061079154750000e-3 -1.639296713430000e-5 0.000000000000000e0
0.000000000000000e0 0.000000000000000e0 0.000000000000000e0 0.000000000000000e0
0.000000000000000e0 0.000000000000000e0 0.000000000000000e0 0.000000000000000e0
0.000000000000000e0 0.000000000000000e0 0.000000000000000e0 0.000000000000000e0
0.000000000000000e0 0.000000000000000e0 0.000000000000000e0 0.000000000000000e0
0.000000000000000e0 0.000000000000000e0 0.000000000000000e0 0.000000000000000e0
0.000000000000000e0 0.000000000000000e0 0.000000000000000e0 0.000000000000000e0
0.000000000000000e0 0.000000000000000e0 0.000000000000000e0 0.000000000000000e0
0.000000000000000e0 0.000000000000000e0 0.000000000000000e0 0.000000000000000e0
0.000000000000000e0 0.000000000000000e0 0.000000000000000e0 0.000000000000000e0
0.000000000000000e0 0.000000000000000e0 0.000000000000000e0 0.000000000000000e0
0.000000000000000e0 0.000000000000000e0 0.000000000000000e0 0.000000000000000e0
0.000000000000000e0 0.000000000000000e0 0.000000000000000e0 0.000000000000000e0
0.000000000000000e0 0.000000000000000e0 0.000000000000000e0 0.000000000000000e0
0.000000000000000e0 0.000000000000000e0 0.000000000000000e0 0.000000000000000e0
0.000000000000000e0 0.000000000000000e0 0.000000000000000e0 0.000000000000000e0
0.000000000000000e0 0.000000000000000e0 0.000000000000000e0 0.000000000000000e0
0.000000000000000e0 0.000000000000000e0 0.000000000000000e0 0.000000000000000e0
0.000000000000000e0 0.000000000000000e0 0.000000000000000e0 0.000000000000000e0
0.000000000000000e0 0.000000000000000e0 0.000000000000000e0 0.000000000000000e0
0.000000000000000e0 0.000000000000000e0 0.000000000000000e0 0.000000000000000e0
0.000000000000000e0 0.000000000000000e0 0.000000000000000e0 0.000000000000000e0
0.000000000000000e0 0.000000000000000e0 0.000000000000000e0 0.000000000000000e0
0.000000000000000e0 0.000000000000000e0 0.000000000000000e0 0.000000000000000e0
0.000000000000000e0 0.000000000000000e0 0.000000000000000e0 0.000000000000000e0
0.000000000000000e0 0.000000000000000e0 0.000000000000000e0 0.000000000000000e0
0.000000000000000e0 0.000000000000000e0 0.000000000000000e0 0.000000000000000e0
0.000000000000000e0 0.000000000000000e0 0.000000000000000e0 0.000000000000000e0
0.000000000000000e0 0.000000000000000e0 0.000000000000000e0 0.000000000000000e0
0.000000000000000e0 0.000000000000000e0 0.000000000000000e0 0.000000000000000e0
0.000000000000000e0 0.000000000000000e0 0.000000000000000e0 0.000000000000000e0
0.000000000000000e0 0.000000000000000e0 0.000000000000000e0 0.000000000000000e0
0.000000000000000e0 0.000000000000000e0 0.000000000000000e0 0.000000000000000e0
0.000000000000000e0 0.000000000000000e0 0.000000000000000e0 0.000000000000000e0
0.000000000000000e0 0.000000000000000e0 0.000000000000000e0 0.000000000000000e0
0.000000000000000e0 0.000000000000000e0 0.000000000000000e0 0.000000000000000e0
0.000000000000000e0 0.000000000000000e0 0.000000000000000e0 0.000000000000000e0
0.000000000000000e0 0.000000000000000e0 0.000000000000000e0 0.000000000000000e0
0.000000000000000e0 0.000000000000000e0 0.000000000000000e0 0.000000000000000e0
0.000000000000000e0 0.000000000000000e0 0.000000000000000e0 0.000000000000000e0
0.000000000000000e0 0.000000000000000e0 0.000000000000000e0 0.000000000000000e0
0.000000000000000e0 0.000000000000000e0 0.000000000000000e0 0.000000000000000e0
0.000000000000000e0 0.000000000000000e0 0.000000000000000e0 0.000000000000000e0
0.000000000000000e0 0.000000000000000e0 0.000000000000000e0 0.000000000000000e0
0.000000000000000e0 0.000000000000000e0 0.000000000000000e0 0.000000000000000e0
0.000000000000000e0 0.000000000000000e0 0.000000000000000e0 0.000000000000000e0
0.000000000000000e0 0.000000000000000e0 0.000000000000000e0 0.000000000000000e0
0.000000000000000e0 0.000000000000000e0 0.000000000000000e0 0.000000000000000e0
0.000000000000000e0 0.000000000000000e0 0.000000000000000e0 0.000000000000000e0
0.000000000000000e0 0.000000000000000e0 0.000000000000000e0 0.000000000000000e0
0.000000000000000e0 0.000000000000000e0 0.000000000000000e0 0.000000000000000e0
0.000000000000000e0 0.000000000000000e0 0.000000000000000e0 0.000000000000000e0
0.000000000000000e0 0.000000000000000e0 0.000000000000000e0 0.000000000000000e0
0.000000000000000e0 0.000000000000000e0 0.000000000000000e0 0.000000000000000e0
0.000000000000000e0 0.000000000000000e0 0.000000000000000e0 0.000000000000000e0
0.000000000000000e0 0.000000000000000e0 0.000000000000000e0 0.000000000000000e0
0.000000000000000e0 0.000000000000000e0 0.000000000000000e0 0.000000000000000e0
0.000000000000000e0 0.000000000000000e0 0.000000000000000e0 0.000000000000000e0
0.000000000000000e0 0.000000000000000e0 0.000000000000000e0 0.000000000000000e0
0.000000000000000e0 0.000000000000000e0 0.000000000000000e0 0.000000000000000e0
0.000000000000000e0 0.000000000000000e0 0.000000000000000e0 0.000000000000000e0
0.000000000000000e0 0.000000000000000e0 0.000000000000000e0 0.000000000000000e0
0.000000000000000e0 0.000000000000000e0 0.000000000000000e0 0.000000000000000e0
0.000000000000000e0 0.000000000000000e0 0.000000000000000e0 0.000000000000000e0
0.000000000000000e0
</PP_QIJ.3.3>
<PP_QIJ.3.4 first_index="3" second_index="4" composite_index="9">
0.000000000000000e0 3.283380118260000e-9 1.335897904410000e-8 3.057515673629999e-8
5.529423592690000e-8 8.789301690570001e-8 1.287633106250000e-7 1.783124907640000e-7
2.369640654190000e-7 3.051582691030000e-7 3.833526757700001e-7 4.720228335900001e-7
5.716629222540002e-7 6.827864335679999e-7 8.059268761790001e-7 9.416385052559999e-7
1.090497078010000e-6 1.253100635940001e-6 1.430070314780000e-6 1.622051183020000e-6
1.829713110140000e-6 2.053751665450000e-6 2.294889048700000e-6 2.553875053520000e-6
2.831488064910000e-6 3.128536091770000e-6 3.445857836010000e-6 3.784323799210000e-6
4.144837428270000e-6 4.528336301490000e-6 4.935793356280000e-6 5.368218160210001e-6
5.826658226590000e-6 6.312200376500000e-6 6.825972148570001e-6 7.369143258320000e-6
7.942927108830001e-6 8.548582354350000e-6 9.187414518890000e-6 9.860777671580001e-6
1.057007616080000e-5 1.131676640910000e-5 1.210235877130000e-5 1.292841945710000e-5
1.379657252190000e-5 1.470850192670000e-5 1.566595367050000e-5 1.667073799700000e-5
1.772473167920000e-5 1.882988038310000e-5 1.998820111480000e-5 2.120178475290000e-5
2.247279866920000e-5 2.380348944170000e-5 2.519618566170001e-5 2.665330083930000e-5
2.817733641060000e-5 2.977088484940000e-5 3.143663288849999e-5 3.317736485180000e-5
3.499596610470000e-5 3.689542662370000e-5 3.887884469020000e-5 4.094943071439999e-5
4.311051119180001e-5 4.536553279710001e-5 4.771806662220000e-5 5.017181256059999e-5
5.273060384550000e-5 5.539841174499999e-5 5.817935042239998e-5 6.107768196389999e-5
6.409782158290001e-5 6.724434300450000e-5 7.052198403830000e-5 7.393565234390000e-5
7.749043139870000e-5 8.119158667150000e-5 8.504457201240001e-5 8.905503626369999e-5
9.322883010189999e-5 9.757201311630002e-5 1.020908611350000e-4 1.067918738040000e-4
1.116817824310000e-4 1.167675581020000e-4 1.220564200780000e-4 1.275558444850000e-4
1.332735733040000e-4 1.392176236790000e-4 1.453962975370000e-4 1.518181915560000e-4
1.584922074650000e-4 1.654275627140000e-4 1.726338015040000e-4 1.801208062070000e-4
1.878988091790000e-4 1.959784049820000e-4 2.043705630340000e-4 2.130866406900000e-4
2.221383967880000e-4 2.315380056520000e-4 2.412980715910000e-4 2.514316438950001e-4
2.619522323500000e-4 2.728738232970000e-4 2.842108962390000e-4 2.959784410299999e-4
3.081919756550000e-4 3.208675646310000e-4 3.340218380410000e-4 3.476720112280001e-4
3.618359051719999e-4 3.765319675700001e-4 3.917792946540000e-4 4.075976537490000e-4
4.240075066299999e-4 4.410300336720000e-4 4.586871588459999e-4 4.770015755720000e-4
4.959967734740000e-4 5.156970660570000e-4 5.361276193370000e-4 5.573144814709999e-4
5.792846134019999e-4 6.020659205720000e-4 6.256872857219999e-4 6.501786028360002e-4
6.755708122540000e-4 7.018959369919999e-4 7.291871203340000e-4 7.574786647010000e-4
7.868060718830000e-4 8.172060846509998e-4 8.487167298039999e-4 8.813773627129999e-4
9.152287133920002e-4 9.503129341670000e-4 9.866736489920001e-4 1.024356004460000e-3
1.063406722580000e-3 1.103874155390000e-3 1.145808341400000e-3 1.189261064080000e-3
1.234285912270000e-3 1.280938342710000e-3 1.329275744760000e-3 1.379357507280000e-3
1.431245087900000e-3 1.485002084620000e-3 1.540694309880000e-3 1.598389867230000e-3
1.658159230580000e-3 1.720075326220000e-3 1.784213617680000e-3 1.850652193450000e-3
1.919471857810000e-3 1.990756224700000e-3 2.064591814890000e-3 2.141068156460000e-3
2.220277888730000e-3 2.302316869810000e-3 2.387284287830000e-3 2.475282775930000e-3
2.566418531360000e-3 2.660801438500000e-3 2.758545196250000e-3 2.859767449690000e-3
2.964589926370000e-3 3.073138577180000e-3 3.185543722150000e-3 3.301940201190000e-3
3.422467530040000e-3 3.547270061559999e-3 3.676497152590000e-3 3.810303336460001e-3
3.948848501530000e-3 4.092298075710000e-3 4.240823217450000e-3 4.394601013190000e-3
4.553814681580000e-3 4.718653784740000e-3 4.889314446710000e-3 5.065999579400000e-3
5.248919116260000e-3 5.438290253969999e-3 5.634337702360000e-3 5.837293942900001e-3
6.047399496030001e-3 6.264903197550000e-3 6.490062484600001e-3 6.723143691200000e-3
6.964422354049999e-3 7.214183528689999e-3 7.472722116380000e-3 7.740343202230000e-3
8.017362404740000e-3 8.304106237330000e-3 8.600912482090001e-3 8.908130576290000e-3
9.226122012019999e-3 9.555260749350001e-3 9.895933643589998e-3 1.024854088700000e-2
1.061349646550000e-2 1.099122863080000e-2 1.138218038860000e-2 1.178681000320000e-2
1.220559151930000e-2 1.263901530130000e-2 1.308758859080000e-2 1.355183608330000e-2
1.403230052340000e-2 1.452954332130000e-2 1.504414518890000e-2 1.557670679810000e-2
1.612784946040000e-2 1.669821583030000e-2 1.728847063170000e-2 1.789930140810000e-2
1.853141929890000e-2 1.918555984130000e-2 1.986248379840000e-2 2.056297801540000e-2
2.128785630450000e-2 2.203796035870000e-2 2.281416069610000e-2 2.361735763560000e-2
2.444848230460000e-2 2.530849768080000e-2 2.619839966700000e-2 2.711921820280000e-2
2.807201841130000e-2 2.905790178520000e-2 3.007800741020000e-2 3.113351322890000e-2
3.222563734670000e-2 3.335563937870000e-2 3.452482184210000e-2 3.573453159210000e-2
3.698616130570000e-2 3.828115101210000e-2 3.962098967340000e-2 4.100721681520000e-2
4.244142421020000e-2 4.392525761470000e-2 4.546041856120000e-2 4.704866620730000e-2
4.869181924310000e-2 5.039175785930000e-2 5.215042577630000e-2 5.396983233750000e-2
5.585205466780000e-2 5.779923989830000e-2 5.981360746130000e-2 6.189745145460001e-2
6.405314307930000e-2 6.628313315120000e-2 6.858995468910000e-2 7.097622558110000e-2
7.344465133110000e-2 7.599802788709999e-2 7.863924455399999e-2 8.137128699210001e-2
8.419724030389999e-2 8.712029221040002e-2 9.014373632000000e-2 9.327097549059999e-2
9.650552528810000e-2 9.985101754280000e-2 1.033112040040000e-1 1.068899601000000e-1
1.105912887960000e-1 1.144193245610000e-1 1.183783374410000e-1 1.224727372410000e-1
1.267070778140000e-1 1.310860614690000e-1 1.356145434810000e-1 1.402975367250000e-1
1.451402164220000e-1 1.501479250010000e-1 1.553261770760000e-1 1.606806645460000e-1
1.662172618100000e-1 1.719420311000000e-1 1.778612279360000e-1 1.839813066920000e-1
1.903089262900000e-1 1.968509560050000e-1 2.036144813800000e-1 2.106068102660000e-1
2.178354789690000e-1 2.253082584990000e-1 2.330331609420000e-1 2.410184459150000e-1
2.492726271370000e-1 2.578044790820000e-1 2.666230437260000e-1 2.757376373770000e-1
2.851578575750000e-1 2.948935900690000e-1 3.049550158420000e-1 3.153526181960000e-1
3.260971898650000e-1 3.371998401670000e-1 3.486720021590000e-1 3.605254398000000e-1
3.727722550900000e-1 3.854248951840000e-1 3.984961594490000e-1 4.119992064500000e-1
4.259475608430000e-1 4.403551201470000e-1 4.552361613750000e-1 4.706053474900000e-1
4.864777336590000e-1 5.028687732700000e-1 5.197943236790000e-1 5.372706516470000e-1
5.553144384260000e-1 5.739427844510000e-1 5.931732135890000e-1 6.130236768960000e-1
6.335125558300000e-1 6.546586648520000e-1 6.764812533660000e-1 6.990000069250000e-1
7.222350476340001e-1 7.462069336679999e-1 7.709366578390000e-1 7.964456451150000e-1
8.227557490060001e-1 8.498892467159999e-1 8.778688329680000e-1 9.067176123859999e-1
9.364590903210001e-1 9.671171620059999e-1 9.987160999049999e-1 1.031280539130000e0
1.064835460760000e0 1.099406172960000e0 1.135018289710000e0 1.171697706920000e0
1.209470575920000e0 1.248363273950000e0 1.288402371600000e0 1.329614596880000e0
1.372026795910000e0 1.415665889660000e0 1.460558826950000e0 1.506732533040000e0
1.554213853880000e0 1.603029495590000e0 1.653205958910000e0 1.704769468390000e0
1.757745895990000e0 1.812160678730000e0 1.868038730130000e0 1.925404345130000e0
1.984281098000000e0 2.044691733040000e0 2.106658047550000e0 2.170200766750000e0
2.235339410310000e0 2.302092149790000e0 2.370475656950000e0 2.440504942070000e0
2.512193182090000e0 2.585551537900000e0 2.660588960390000e0 2.737311984530000e0
2.815724511180000e0 2.895827575870000e0 2.977619103900000e0 3.061093651370000e0
3.146242131250000e0 3.233051523930000e0 3.321504571610000e0 3.411579455740000e0
3.503249456780000e0 3.596482595680000e0 3.691241256210000e0 3.787481787490000e0
3.885154085970000e0 3.984201156280000e0 4.084558650140000e0 4.186154382970000e0
4.288907827680000e0 4.392729585210000e0 4.497520831950000e0 4.603172743870000e0
4.709565897950000e0 4.816569651690000e0 4.924041501860000e0 5.031826424480000e0
5.139756198460000e0 5.247648716400000e0 5.355307287000000e0 5.462519934730000e0
5.569058703840000e0 5.674678975680000e0 5.779118809990000e0 5.882098323220000e0
5.983319119740000e0 6.082463794310000e0 6.179195527820000e0 6.273157801970000e0
6.363974262140000e0 6.451248762590000e0 6.534565632140000e0 6.613490203480000e0
6.687569653800000e0 6.756334209050000e0 6.819298768080000e0 6.875965006500000e0
6.925824021890000e0 6.968359582720000e0 7.003052041390000e0 7.029382966660000e0
7.046840541950000e0 7.054925761900000e0 7.053159439330000e0 7.041090007230000e0
7.018302064030000e0 6.984425564020000e0 6.939145497240000e0 6.882211833690000e0
6.813449424550000e0 6.732767459490000e0 6.640167974690000e0 6.535752795450000e0
6.419728184920000e0 6.292406366260000e0 6.154203001530000e0 6.005629665300000e0
5.847280367920000e0 5.679811293410000e0 5.503913159020000e0 5.320276023000000e0
5.129547017460000e0 4.932282419710000e0 4.728896750310000e0 4.519613236590000e0
4.304422007690000e0 4.083054724800000e0 3.854986813690000e0 3.619480674480000e0
3.375684503890000e0 3.122800500410000e0 2.860331319680000e0 2.588401691270000e0
2.308128455430000e0 2.021969908810000e0 1.733913795690000e0 1.449247133870000e0
1.173493717060000e0 9.105473896159999e-1 6.636705839610000e-1 4.364013627830000e-1
2.325142791640000e-1 5.584855187280001e-2 -8.995237124780001e-2 -2.017981415480000e-1
-2.776052312180000e-1 -3.168307911070000e-1 -3.210431004670000e-1 -2.944400930500000e-1
-2.441603998230000e-1 -1.801462671390000e-1 -1.142425002510000e-1 -5.822475905340000e-2
-2.069576423160000e-2 -3.521071689510000e-3 -4.513481302689999e-5 0.000000000000000e0
0.000000000000000e0 0.000000000000000e0 0.000000000000000e0 0.000000000000000e0
0.000000000000000e0 0.000000000000000e0 0.000000000000000e0 0.000000000000000e0
0.000000000000000e0 0.000000000000000e0 0.000000000000000e0 0.000000000000000e0
0.000000000000000e0 0.000000000000000e0 0.000000000000000e0 0.000000000000000e0
0.000000000000000e0 0.000000000000000e0 0.000000000000000e0 0.000000000000000e0
0.000000000000000e0 0.000000000000000e0 0.000000000000000e0 0.000000000000000e0
0.000000000000000e0 0.000000000000000e0 0.000000000000000e0 0.000000000000000e0
0.000000000000000e0 0.000000000000000e0 0.000000000000000e0 0.000000000000000e0
0.000000000000000e0 0.000000000000000e0 0.000000000000000e0 0.000000000000000e0
0.000000000000000e0 0.000000000000000e0 0.000000000000000e0 0.000000000000000e0
0.000000000000000e0 0.000000000000000e0 0.000000000000000e0 0.000000000000000e0
0.000000000000000e0 0.000000000000000e0 0.000000000000000e0 0.000000000000000e0
0.000000000000000e0 0.000000000000000e0 0.000000000000000e0 0.000000000000000e0
0.000000000000000e0 0.000000000000000e0 0.000000000000000e0 0.000000000000000e0
0.000000000000000e0 0.000000000000000e0 0.000000000000000e0 0.000000000000000e0
0.000000000000000e0 0.000000000000000e0 0.000000000000000e0 0.000000000000000e0
0.000000000000000e0 0.000000000000000e0 0.000000000000000e0 0.000000000000000e0
0.000000000000000e0 0.000000000000000e0 0.000000000000000e0 0.000000000000000e0
0.000000000000000e0 0.000000000000000e0 0.000000000000000e0 0.000000000000000e0
0.000000000000000e0 0.000000000000000e0 0.000000000000000e0 0.000000000000000e0
0.000000000000000e0 0.000000000000000e0 0.000000000000000e0 0.000000000000000e0
0.000000000000000e0 0.000000000000000e0 0.000000000000000e0 0.000000000000000e0
0.000000000000000e0 0.000000000000000e0 0.000000000000000e0 0.000000000000000e0
0.000000000000000e0 0.000000000000000e0 0.000000000000000e0 0.000000000000000e0
0.000000000000000e0 0.000000000000000e0 0.000000000000000e0 0.000000000000000e0
0.000000000000000e0 0.000000000000000e0 0.000000000000000e0 0.000000000000000e0
0.000000000000000e0 0.000000000000000e0 0.000000000000000e0 0.000000000000000e0
0.000000000000000e0 0.000000000000000e0 0.000000000000000e0 0.000000000000000e0
0.000000000000000e0 0.000000000000000e0 0.000000000000000e0 0.000000000000000e0
0.000000000000000e0 0.000000000000000e0 0.000000000000000e0 0.000000000000000e0
0.000000000000000e0 0.000000000000000e0 0.000000000000000e0 0.000000000000000e0
0.000000000000000e0 0.000000000000000e0 0.000000000000000e0 0.000000000000000e0
0.000000000000000e0 0.000000000000000e0 0.000000000000000e0 0.000000000000000e0
0.000000000000000e0 0.000000000000000e0 0.000000000000000e0 0.000000000000000e0
0.000000000000000e0 0.000000000000000e0 0.000000000000000e0 0.000000000000000e0
0.000000000000000e0 0.000000000000000e0 0.000000000000000e0 0.000000000000000e0
0.000000000000000e0 0.000000000000000e0 0.000000000000000e0 0.000000000000000e0
0.000000000000000e0 0.000000000000000e0 0.000000000000000e0 0.000000000000000e0
0.000000000000000e0 0.000000000000000e0 0.000000000000000e0 0.000000000000000e0
0.000000000000000e0 0.000000000000000e0 0.000000000000000e0 0.000000000000000e0
0.000000000000000e0 0.000000000000000e0 0.000000000000000e0 0.000000000000000e0
0.000000000000000e0 0.000000000000000e0 0.000000000000000e0 0.000000000000000e0
0.000000000000000e0 0.000000000000000e0 0.000000000000000e0 0.000000000000000e0
0.000000000000000e0 0.000000000000000e0 0.000000000000000e0 0.000000000000000e0
0.000000000000000e0 0.000000000000000e0 0.000000000000000e0 0.000000000000000e0
0.000000000000000e0 0.000000000000000e0 0.000000000000000e0 0.000000000000000e0
0.000000000000000e0 0.000000000000000e0 0.000000000000000e0 0.000000000000000e0
0.000000000000000e0 0.000000000000000e0 0.000000000000000e0 0.000000000000000e0
0.000000000000000e0 0.000000000000000e0 0.000000000000000e0 0.000000000000000e0
0.000000000000000e0 0.000000000000000e0 0.000000000000000e0 0.000000000000000e0
0.000000000000000e0 0.000000000000000e0 0.000000000000000e0 0.000000000000000e0
0.000000000000000e0 0.000000000000000e0 0.000000000000000e0 0.000000000000000e0
0.000000000000000e0 0.000000000000000e0 0.000000000000000e0 0.000000000000000e0
0.000000000000000e0 0.000000000000000e0 0.000000000000000e0 0.000000000000000e0
0.000000000000000e0 0.000000000000000e0 0.000000000000000e0 0.000000000000000e0
0.000000000000000e0 0.000000000000000e0 0.000000000000000e0 0.000000000000000e0
0.000000000000000e0 0.000000000000000e0 0.000000000000000e0 0.000000000000000e0
0.000000000000000e0 0.000000000000000e0 0.000000000000000e0 0.000000000000000e0
0.000000000000000e0 0.000000000000000e0 0.000000000000000e0 0.000000000000000e0
0.000000000000000e0 0.000000000000000e0 0.000000000000000e0 0.000000000000000e0
0.000000000000000e0 0.000000000000000e0 0.000000000000000e0 0.000000000000000e0
0.000000000000000e0 0.000000000000000e0 0.000000000000000e0 0.000000000000000e0
0.000000000000000e0 0.000000000000000e0 0.000000000000000e0 0.000000000000000e0
0.000000000000000e0
</PP_QIJ.3.4>
<PP_QIJ.4.4 first_index="4" second_index="4" composite_index="10">
0.000000000000000e0 2.917678910900000e-9 1.187106275240000e-8 2.716971132430000e-8
4.913559202950001e-8 7.810353732220000e-8 1.144217184340000e-7 1.584521359520000e-7
2.105711278280000e-7 2.711698954460000e-7 3.406550483650000e-7 4.194491683960000e-7
5.079913936859999e-7 6.067380235170000e-7 7.161631445329999e-7 8.367592791500000e-7
9.690380569249999e-7 1.113530909680000e-6 1.270789791210000e-6 1.441387922440000e-6
1.625920562960000e-6 1.825005809690000e-6 2.039285423900000e-6 2.269425687340000e-6
2.516118288550000e-6 2.780081240480000e-6 3.062059830470000e-6 3.362827603640000e-6
3.683187380960000e-6 4.023972313190000e-6 4.386046971890000e-6 4.770308478830001e-6
5.177687675110000e-6 5.609150331410000e-6 6.065698400780001e-6 6.548371315449999e-6
7.058247329169999e-6 7.596444906720000e-6 8.164124162180000e-6 8.762488347700000e-6
9.392785394430001e-6 1.005630950760000e-5 1.075440281740000e-5 1.148845708800000e-5
1.225991548580000e-5 1.307027441060000e-5 1.392108539010000e-5 1.481395704100000e-5
1.575055709890000e-5 1.673261451880000e-5 1.776192164980000e-5 1.884033648500000e-5
1.996978499090000e-5 2.115226351750001e-5 2.238984129300000e-5 2.368466300610000e-5
2.503895147740000e-5 2.645501042510000e-5 2.793522732690001e-5 2.948207638180000e-5
3.109812157530000e-5 3.278601985140000e-5 3.454852439580000e-5 3.638848803270000e-5
3.830886674110000e-5 4.031272329290000e-5 4.240323101830000e-5 4.458367770190000e-5
4.685746961520000e-5 4.922813568930000e-5 5.169933183269999e-5 5.427484539990001e-5
5.695859981520000e-5 5.975465935790001e-5 6.266723411360000e-5 6.570068509810001e-5
6.885952955949999e-5 7.214844646480000e-5 7.557228217730000e-5 7.913605633140000e-5
8.284496791179999e-5 8.670440154380000e-5 9.071993400279998e-5 9.489734094920001e-5
9.924260389830000e-5 1.037619174320000e-4 1.084616966590000e-4 1.133485849390000e-4
1.184294618720000e-4 1.237114515620000e-4 1.292019311730000e-4 1.349085397810000e-4
1.408391875310000e-4 1.470020651110000e-4 1.534056535610000e-4 1.600587344140000e-4
1.669704001950000e-4 1.741500652800000e-4 1.816074771380000e-4 1.893527279530000e-4
1.973962666580000e-4 2.057489113820000e-4 2.144218623260000e-4 2.234267150960000e-4
2.327754744810000e-4 2.424805687260001e-4 2.525548642880000e-4 2.630116811040000e-4
2.738648083960000e-4 2.851285210159999e-4 2.968175963550000e-4 3.089473318490001e-4
3.215335630780000e-4 3.345926824980000e-4 3.481416588230000e-4 3.621980570740000e-4
3.767800593240000e-4 3.919064861570000e-4 4.075968188790000e-4 4.238712224850000e-4
4.407505694289999e-4 4.582564642150000e-4 4.764112688350000e-4 4.952381290880000e-4
5.147610018130001e-4 5.350046830560000e-4 5.559948372210000e-4 5.777580272140000e-4
6.003217456430000e-4 6.237144470910000e-4 6.479655814970000e-4 6.731056287030000e-4
6.991661341860000e-4 7.261797460230000e-4 7.541802531379998e-4 7.832026248670000e-4
8.132830518900001e-4 8.444589885700001e-4 8.767691967660001e-4 9.102537911430000e-4
9.449542860600001e-4 9.809136440610001e-4 1.018176326050000e-3 1.056788343210000e-3
1.096797310650000e-3 1.138252502990000e-3 1.181204911820000e-3 1.225707305110000e-3
1.271814288720000e-3 1.319582370000000e-3 1.369070023590000e-3 1.420337759480000e-3
1.473448193440000e-3 1.528466119820000e-3 1.585458586920000e-3 1.644494974930000e-3
1.705647076520000e-3 1.768989180270000e-3 1.834598156890000e-3 1.902553548500000e-3
1.972937660890000e-3 2.045835659020000e-3 2.121335665750000e-3 2.199528864020000e-3
2.280509602500000e-3 2.364375504860000e-3 2.451227582840000e-3 2.541170353180000e-3
2.634311958550000e-3 2.730764292650000e-3 2.830643129590000e-3 2.934068257720000e-3
3.041163618050000e-3 3.152057447390000e-3 3.266882426460000e-3 3.385775832990000e-3
3.508879700120000e-3 3.636340980220000e-3 3.768311714340000e-3 3.904949207340000e-3
4.046416209230000e-3 4.192881102449999e-3 4.344518095790001e-3 4.501507424780000e-3
4.664035559010000e-3 4.832295416450000e-3 5.006486585180000e-3 5.186815552630000e-3
5.373495942630000e-3 5.566748760550001e-3 5.766802646830000e-3 5.973894139080000e-3
6.188267943170001e-3 6.410177213439999e-3 6.639883842590000e-3 6.877658761249999e-3
7.123782247849999e-3 7.378544248960001e-3 7.642244710510000e-3 7.915193920180002e-3
8.197712861509999e-3 8.490133579849999e-3 8.792799560810000e-3 9.106066121440000e-3
9.430300814660001e-3 9.765883847260000e-3 1.011320851210000e-2 1.047268163500000e-2
1.084472403600000e-2 1.122977100710000e-2 1.162827280570000e-2 1.204069516390000e-2
1.246751981610000e-2 1.290924504310000e-2 1.336638623560000e-2 1.383947647530000e-2
1.432906713620000e-2 1.483572850600000e-2 1.536005042770000e-2 1.590264296270000e-2
1.646413707630000e-2 1.704518534550000e-2 1.764646269040000e-2 1.826866713000000e-2
1.891252056230000e-2 1.957876957120000e-2 2.026818625880000e-2 2.098156910590000e-2
2.171974386040000e-2 2.248356445470000e-2 2.327391395300000e-2 2.409170553030000e-2
2.493788348170000e-2 2.581342426640000e-2 2.671933758370000e-2 2.765666748490000e-2
2.862649352100000e-2 2.962993192650000e-2 3.066813684220000e-2 3.174230157630000e-2
3.285365990650000e-2 3.400348742240000e-2 3.519310291150000e-2 3.642386978880000e-2
3.769719757080000e-2 3.901454339610000e-2 4.037741359430000e-2 4.178736530220000e-2
4.324600813170000e-2 4.475500588800000e-2 4.631607834150000e-2 4.793100305370000e-2
4.960161725830000e-2 5.132981980009999e-2 5.311757313160000e-2 5.496690537040000e-2
5.687991241700000e-2 5.885876013619999e-2 6.090568660230000e-2 6.302300441040000e-2
6.521310305440000e-2 6.747845137460001e-2 6.982160007410000e-2 7.224518430800000e-2
7.475192634490000e-2 7.734463830290000e-2 8.002622496150000e-2 8.279968665060000e-2
8.566812221780001e-2 8.863473207529999e-2 9.170282132790000e-2 9.487580298299999e-2
9.815720124340000e-2 1.015506548850000e-1 1.050599207170000e-1 1.086888771340000e-1
1.124415277450000e-1 1.163220051000000e-1 1.203345744940000e-1 1.244836378690000e-1
1.287737377940000e-1 1.332095615410000e-1 1.377959452410000e-1 1.425378781350000e-1
1.474405069070000e-1 1.525091400960000e-1 1.577492526080000e-1 1.631664902910000e-1
1.687666746070000e-1 1.745558073710000e-1 1.805400755690000e-1 1.867258562480000e-1
1.931197214750000e-1 1.997284433570000e-1 2.065589991230000e-1 2.136185762620000e-1
2.209145777020000e-1 2.284546270370000e-1 2.362465737850000e-1 2.442984986720000e-1
2.526187189360000e-1 2.612157936290000e-1 2.700985289250000e-1 2.792759834070000e-1
2.887574733220000e-1 2.985525778010000e-1 3.086711440080000e-1 3.191232922280000e-1
3.299194208440000e-1 3.410702112170000e-1 3.525866324160000e-1 3.644799457990000e-1
3.767617094080000e-1 3.894437821510000e-1 4.025383277520000e-1 4.160578184190000e-1
4.300150382200000e-1 4.444230861140000e-1 4.592953786080000e-1 4.746456519860000e-1
4.904879640920000e-1 5.068366955890000e-1 5.237065506690000e-1 5.411125571480000e-1
5.590700658890000e-1 5.775947495090000e-1 5.967026002800000e-1 6.164099271840000e-1
6.367333520250000e-1 6.576898045470000e-1 6.792965164560000e-1 7.015710142720000e-1
7.245311109280000e-1 7.481948960020000e-1 7.725807245050000e-1 7.977072041010000e-1
8.235931806670001e-1 8.502577220590000e-1 8.777200999780000e-1 9.059997698010001e-1
9.351163482460001e-1 9.650895887330000e-1 9.959393542879999e-1 1.027685587850000e0
1.060348279830000e0 1.093947432690000e0 1.128503022520000e0 1.164034957210000e0
1.200563031310000e0 1.238106877090000e0 1.276685911850000e0 1.316319281120000e0
1.357025797590000e0 1.398823875540000e0 1.441731460610000e0 1.485765954480000e0
1.530944134460000e0 1.577282067570000e0 1.624795018920000e0 1.673497354080000e0
1.723402435220000e0 1.774522510700000e0 1.826868597730000e0 1.880450358050000e0
1.935275965970000e0 1.991351968710000e0 2.048683138600000e0 2.107272316750000e0
2.167120247920000e0 2.228225406120000e0 2.290583810530000e0 2.354188831490000e0
2.419030985830000e0 2.485097721390000e0 2.552373189970000e0 2.620838008450000e0
2.690469007340000e0 2.761238966330000e0 2.833116336180000e0 2.906064946410000e0
2.980043698060000e0 3.055006240930000e0 3.130900634590000e0 3.207668992520000e0
3.285247108640000e0 3.363564065570000e0 3.442541824030000e0 3.522094792850000e0
3.602129378970000e0 3.682543517210000e0 3.763226179740000e0 3.844056865100000e0
3.924905067520000e0 4.005629727140000e0 4.086078662700000e0 4.166087988710000e0
4.245481520040000e0 4.324070167820000e0 4.401651331960000e0 4.478008296730000e0
4.552909638070000e0 4.626108653050000e0 4.697342824370000e0 4.766333335890000e0
4.832784658000000e0 4.896384225720000e0 4.956802236250000e0 5.013691597490000e0
5.066688063860000e0 5.115410601320000e0 5.159462028970000e0 5.198429990610000e0
5.231888315380000e0 5.259398831950000e0 5.280513705820000e0 5.294778372930000e0
5.301735144680000e0 5.300927559550000e0 5.291905552390000e0 5.274231505000000e0
5.247487227890000e0 5.211281902870000e0 5.165260987100000e0 5.109116040300000e0
5.042595385540000e0 4.965515449550000e0 4.877772548320000e0 4.779354787550000e0
4.670353634790000e0 4.550974590900000e0 4.421546246730000e0 4.282526859960000e0
4.134507436190000e0 3.978210159960000e0 3.814480913130000e0 3.644274565840000e0
3.468631762020000e0 3.288646091070000e0 3.105420893050000e0 2.920015551810000e0
2.733382061620000e0 2.546293985910000e0 2.359271734340000e0 2.172510416470000e0
1.985819388580000e0 1.798585898530000e0 1.609778692190000e0 1.418010538480000e0
1.221680385680000e0 1.019214632030000e0 8.094200989359999e-1 5.919445184820001e-1
3.678071981970000e-1 1.399031925940000e-1 -8.671582333549999e-2 -3.051432414800000e-1
-5.080947526960000e-1 -6.904643628530000e-1 -8.482108478030000e-1 -9.771858108380000e-1
-1.073284972540000e0 -1.132766134840000e0 -1.152670728060000e0 -1.131342925180000e0
-1.069022700550000e0 -9.684629829390000e-1 -8.354826738180000e-1 -6.793134282340000e-1
-5.125286467270000e-1 -3.502701137780000e-1 -2.084499889030000e-1 -1.006954129640000e-1
-3.419535992180000e-2 -5.594962475630000e-3 -6.933550546739999e-5 0.000000000000000e0
0.000000000000000e0 0.000000000000000e0 0.000000000000000e0 0.000000000000000e0
0.000000000000000e0 0.000000000000000e0 0.000000000000000e0 0.000000000000000e0
0.000000000000000e0 0.000000000000000e0 0.000000000000000e0 0.000000000000000e0
0.000000000000000e0 0.000000000000000e0 0.000000000000000e0 0.000000000000000e0
0.000000000000000e0 0.000000000000000e0 0.000000000000000e0 0.000000000000000e0
0.000000000000000e0 0.000000000000000e0 0.000000000000000e0 0.000000000000000e0
0.000000000000000e0 0.000000000000000e0 0.000000000000000e0 0.000000000000000e0
0.000000000000000e0 0.000000000000000e0 0.000000000000000e0 0.000000000000000e0
0.000000000000000e0 0.000000000000000e0 0.000000000000000e0 0.000000000000000e0
0.000000000000000e0 0.000000000000000e0 0.000000000000000e0 0.000000000000000e0
0.000000000000000e0 0.000000000000000e0 0.000000000000000e0 0.000000000000000e0
0.000000000000000e0 0.000000000000000e0 0.000000000000000e0 0.000000000000000e0
0.000000000000000e0 0.000000000000000e0 0.000000000000000e0 0.000000000000000e0
0.000000000000000e0 0.000000000000000e0 0.000000000000000e0 0.000000000000000e0
0.000000000000000e0 0.000000000000000e0 0.000000000000000e0 0.000000000000000e0
0.000000000000000e0 0.000000000000000e0 0.000000000000000e0 0.000000000000000e0
0.000000000000000e0 0.000000000000000e0 0.000000000000000e0 0.000000000000000e0
0.000000000000000e0 0.000000000000000e0 0.000000000000000e0 0.000000000000000e0
0.000000000000000e0 0.000000000000000e0 0.000000000000000e0 0.000000000000000e0
0.000000000000000e0 0.000000000000000e0 0.000000000000000e0 0.000000000000000e0
0.000000000000000e0 0.000000000000000e0 0.000000000000000e0 0.000000000000000e0
0.000000000000000e0 0.000000000000000e0 0.000000000000000e0 0.000000000000000e0
0.000000000000000e0 0.000000000000000e0 0.000000000000000e0 0.000000000000000e0
0.000000000000000e0 0.000000000000000e0 0.000000000000000e0 0.000000000000000e0
0.000000000000000e0 0.000000000000000e0 0.000000000000000e0 0.000000000000000e0
0.000000000000000e0 0.000000000000000e0 0.000000000000000e0 0.000000000000000e0
0.000000000000000e0 0.000000000000000e0 0.000000000000000e0 0.000000000000000e0
0.000000000000000e0 0.000000000000000e0 0.000000000000000e0 0.000000000000000e0
0.000000000000000e0 0.000000000000000e0 0.000000000000000e0 0.000000000000000e0
0.000000000000000e0 0.000000000000000e0 0.000000000000000e0 0.000000000000000e0
0.000000000000000e0 0.000000000000000e0 0.000000000000000e0 0.000000000000000e0
0.000000000000000e0 0.000000000000000e0 0.000000000000000e0 0.000000000000000e0
0.000000000000000e0 0.000000000000000e0 0.000000000000000e0 0.000000000000000e0
0.000000000000000e0 0.000000000000000e0 0.000000000000000e0 0.000000000000000e0
0.000000000000000e0 0.000000000000000e0 0.000000000000000e0 0.000000000000000e0
0.000000000000000e0 0.000000000000000e0 0.000000000000000e0 0.000000000000000e0
0.000000000000000e0 0.000000000000000e0 0.000000000000000e0 0.000000000000000e0
0.000000000000000e0 0.000000000000000e0 0.000000000000000e0 0.000000000000000e0
0.000000000000000e0 0.000000000000000e0 0.000000000000000e0 0.000000000000000e0
0.000000000000000e0 0.000000000000000e0 0.000000000000000e0 0.000000000000000e0
0.000000000000000e0 0.000000000000000e0 0.000000000000000e0 0.000000000000000e0
0.000000000000000e0 0.000000000000000e0 0.000000000000000e0 0.000000000000000e0
0.000000000000000e0 0.000000000000000e0 0.000000000000000e0 0.000000000000000e0
0.000000000000000e0 0.000000000000000e0 0.000000000000000e0 0.000000000000000e0
0.000000000000000e0 0.000000000000000e0 0.000000000000000e0 0.000000000000000e0
0.000000000000000e0 0.000000000000000e0 0.000000000000000e0 0.000000000000000e0
0.000000000000000e0 0.000000000000000e0 0.000000000000000e0 0.000000000000000e0
0.000000000000000e0 0.000000000000000e0 0.000000000000000e0 0.000000000000000e0
0.000000000000000e0 0.000000000000000e0 0.000000000000000e0 0.000000000000000e0
0.000000000000000e0 0.000000000000000e0 0.000000000000000e0 0.000000000000000e0
0.000000000000000e0 0.000000000000000e0 0.000000000000000e0 0.000000000000000e0
0.000000000000000e0 0.000000000000000e0 0.000000000000000e0 0.000000000000000e0
0.000000000000000e0 0.000000000000000e0 0.000000000000000e0 0.000000000000000e0
0.000000000000000e0 0.000000000000000e0 0.000000000000000e0 0.000000000000000e0
0.000000000000000e0 0.000000000000000e0 0.000000000000000e0 0.000000000000000e0
0.000000000000000e0 0.000000000000000e0 0.000000000000000e0 0.000000000000000e0
0.000000000000000e0 0.000000000000000e0 0.000000000000000e0 0.000000000000000e0
0.000000000000000e0 0.000000000000000e0 0.000000000000000e0 0.000000000000000e0
0.000000000000000e0 0.000000000000000e0 0.000000000000000e0 0.000000000000000e0
0.000000000000000e0 0.000000000000000e0 0.000000000000000e0 0.000000000000000e0
0.000000000000000e0 0.000000000000000e0 0.000000000000000e0 0.000000000000000e0
0.000000000000000e0 0.000000000000000e0 0.000000000000000e0 0.000000000000000e0
0.000000000000000e0 0.000000000000000e0 0.000000000000000e0 0.000000000000000e0
0.000000000000000e0
</PP_QIJ.4.4>
</PP_AUGMENTATION>
</PP_NONLOCAL>
<PP_PSWFC>
<PP_CHI.1 index="1" label="2S" l="0" occupation="2.000000000000e0" n="0" pseudo_energy="0.000000000000e0" cutoff_radius="8.000000000000e-1" ultrasoft_cutoff_radius="1.100000000000e0">
0.000000000000000e0 1.108313625810000e-5 2.235572325560000e-5 3.382099939230000e-5
4.548225841820000e-5 5.734285038540000e-5 6.940618261010000e-5 8.167572065160000e-5
9.415498930809999e-5 1.068475736290000e-4 1.197571199450000e-4 1.328873369150000e-4
1.462419965920000e-4 1.598249355090000e-4 1.736400557760000e-4 1.876913262040000e-4
2.019827834470000e-4 2.165185331580000e-4 2.313027511700000e-4 2.463396846980000e-4
2.616336535540000e-4 2.771890513910000e-4 2.930103469670000e-4 3.091020854260000e-4
3.254688896010000e-4 3.421154613510000e-4 3.590465829029999e-4 3.762671182280000e-4
3.937820144410000e-4 4.115963032200000e-4 4.297151022520000e-4 4.481436167020000e-4
4.668871407110000e-4 4.859510589120000e-4 5.053408479829999e-4 5.250620782170000e-4
5.451204151200000e-4 5.655216210439999e-4 5.862715568360001e-4 6.073761835270000e-4
6.288415640430001e-4 6.506738649440002e-4 6.728793581980002e-4 6.954644229820000e-4
7.184355475159999e-4 7.417993309220000e-4 7.655624851279999e-4 7.897318367870000e-4
8.143143292440001e-4 8.393170245290001e-4 8.647471053840000e-4 8.906118773290000e-4
9.169187707589998e-4 9.436753430790001e-4 9.708892808740000e-4 9.985684021179999e-4
1.026720658420000e-3 1.055354137300000e-3 1.084477064540000e-3 1.114097806500000e-3
1.144224872570000e-3 1.174866917580000e-3 1.206032744290000e-3 1.237731305960000e-3
1.269971708840000e-3 1.302763214890000e-3 1.336115244330000e-3 1.370037378440000e-3
1.404539362250000e-3 1.439631107370000e-3 1.475322694840000e-3 1.511624377990000e-3
1.548546585440000e-3 1.586099924030000e-3 1.624295181930000e-3 1.663143331700000e-3
1.702655533440000e-3 1.742843138040000e-3 1.783717690370000e-3 1.825290932650000e-3
1.867574807820000e-3 1.910581462930000e-3 1.954323252670000e-3 1.998812742900000e-3
2.044062714270000e-3 2.090086165880000e-3 2.136896319000000e-3 2.184506620900000e-3
2.232930748700000e-3 2.282182613290000e-3 2.332276363310000e-3 2.383226389270000e-3
2.435047327600000e-3 2.487754064930000e-3 2.541361742330000e-3 2.595885759650000e-3
2.651341779960000e-3 2.707745734040000e-3 2.765113824970000e-3 2.823462532740000e-3
2.882808619040000e-3 2.943169132040000e-3 3.004561411270000e-3 3.067003092640000e-3
3.130512113490000e-3 3.195106717700000e-3 3.260805460979999e-3 3.327627216200000e-3
3.395591178760000e-3 3.464716872130000e-3 3.535024153470000e-3 3.606533219310000e-3
3.679264611350000e-3 3.753239222350000e-3 3.828478302160000e-3 3.905003463790000e-3
3.982836689610000e-3 4.062000337700001e-3 4.142517148220000e-3 4.224410249950000e-3
4.307703166960001e-3 4.392419825319999e-3 4.478584560010001e-3 4.566222121839999e-3
4.655357684630000e-3 4.746016852380000e-3 4.838225666630000e-3 4.932010613950000e-3
5.027398633519999e-3 5.124417124870000e-3 5.223093955740000e-3 5.323457470060000e-3
5.425536496130000e-3 5.529360354820000e-3 5.634958868040000e-3 5.742362367260000e-3
5.851601702240000e-3 5.962708249849999e-3 6.075713923069999e-3 6.190651180169999e-3
6.307553034000001e-3 6.426453061449999e-3 6.547385413090000e-3 6.670384822950000e-3
6.795486618490000e-3 6.922726730740001e-3 7.052141704550001e-3 7.183768709120000e-3
7.317645548630001e-3 7.453810673080000e-3 7.592303189290001e-3 7.733162872130000e-3
7.876430175899999e-3 8.022146245940000e-3 8.170352930380000e-3 8.321092792180002e-3
8.474409121250000e-3 8.630345946930001e-3 8.788948050519998e-3 8.950260978139999e-3
9.114331053800001e-3 9.281205392570000e-3 9.450931914150001e-3 9.623559356550000e-3
9.799137290039999e-3 9.977716131310000e-3 1.015934715790000e-2 1.034408252300000e-2
1.053197527000000e-2 1.072307934800000e-2 1.091744962730000e-2 1.111514191470000e-2
1.131621296980000e-2 1.152072052080000e-2 1.172872328160000e-2 1.194028096810000e-2
1.215545431530000e-2 1.237430509490000e-2 1.259689613250000e-2 1.282329132610000e-2
1.305355566370000e-2 1.328775524240000e-2 1.352595728680000e-2 1.376823016840000e-2
1.401464342520000e-2 1.426526778120000e-2 1.452017516660000e-2 1.477943873870000e-2
1.504313290220000e-2 1.531133333040000e-2 1.558411698730000e-2 1.586156214880000e-2
1.614374842540000e-2 1.643075678450000e-2 1.672266957380000e-2 1.701957054420000e-2
1.732154487400000e-2 1.762867919280000e-2 1.794106160620000e-2 1.825878172070000e-2
1.858193066920000e-2 1.891060113650000e-2 1.924488738600000e-2 1.958488528600000e-2
1.993069233700000e-2 2.028240769910000e-2 2.064013222020000e-2 2.100396846430000e-2
2.137402074040000e-2 2.175039513220000e-2 2.213319952760000e-2 2.252254364930000e-2
2.291853908570000e-2 2.332129932220000e-2 2.373093977280000e-2 2.414757781310000e-2
2.457133281280000e-2 2.500232616900000e-2 2.544068134090000e-2 2.588652388330000e-2
2.633998148260000e-2 2.680118399210000e-2 2.727026346790000e-2 2.774735420640000e-2
2.823259278100000e-2 2.872611808050000e-2 2.922807134740000e-2 2.973859621720000e-2
3.025783875820000e-2 3.078594751200000e-2 3.132307353410000e-2 3.186937043620000e-2
3.242499442820001e-2 3.299010436090000e-2 3.356486177020001e-2 3.414943092100000e-2
3.474397885220000e-2 3.534867542270001e-2 3.596369335710000e-2 3.658920829340000e-2
3.722539883030000e-2 3.787244657580000e-2 3.853053619640000e-2 3.919985546680000e-2
3.988059532090000e-2 4.057294990250000e-2 4.127711661809999e-2 4.199329618910000e-2
4.272169270589999e-2 4.346251368180000e-2 4.421597010819999e-2 4.498227651090000e-2
4.576165100580000e-2 4.655431535730000e-2 4.736049503559999e-2 4.818041927630000e-2
4.901432113959999e-2 4.986243757110000e-2 5.072500946300000e-2 5.160228171609999e-2
5.249450330259999e-2 5.340192732969999e-2 5.432481110410000e-2 5.526341619710000e-2
5.621800851030000e-2 5.718885834260000e-2 5.817624045740000e-2 5.918043415090000e-2
6.020172332090000e-2 6.124039653660001e-2 6.229674710889999e-2 6.337107316149999e-2
6.446367770260000e-2 6.557486869739999e-2 6.670495914150000e-2 6.785426713389999e-2
6.902311595250000e-2 7.021183412800001e-2 7.142075552030001e-2 7.265021939410000e-2
7.390057049569999e-2 7.517215913020001e-2 7.646534123900000e-2 7.778047847800000e-2
7.911793829550000e-2 8.047809401149999e-2 8.186132489630001e-2 8.326801624980000e-2
8.469855948110000e-2 8.615335218800000e-2 8.763279823640000e-2 8.913730784000000e-2
9.066729764030001e-2 9.222319078520000e-2 9.380541700880000e-2 9.541441270990001e-2
9.705062103060001e-2 9.871449193440000e-2 1.004064822830000e-1 1.021270559140000e-1
1.038766837140000e-1 1.056558436990000e-1 1.074650210800000e-1 1.093047083430000e-1
1.111754053170000e-1 1.130776192410000e-1 1.150118648380000e-1 1.169786643750000e-1
1.189785477280000e-1 1.210120524490000e-1 1.230797238170000e-1 1.251821148980000e-1
1.273197866020000e-1 1.294933077250000e-1 1.317032550050000e-1 1.339502131550000e-1
1.362347749110000e-1 1.385575410610000e-1 1.409191204750000e-1 1.433201301310000e-1
1.457611951350000e-1 1.482429487320000e-1 1.507660323150000e-1 1.533310954230000e-1
1.559387957370000e-1 1.585897990640000e-1 1.612847793150000e-1 1.640244184740000e-1
1.668094065550000e-1 1.696404415540000e-1 1.725182293900000e-1 1.754434838260000e-1
1.784169263930000e-1 1.814392862870000e-1 1.845113002640000e-1 1.876337125120000e-1
1.908072745120000e-1 1.940327448850000e-1 1.973108892180000e-1 2.006424798750000e-1
2.040282957840000e-1 2.074691222130000e-1 2.109657505160000e-1 2.145189778600000e-1
2.181296069290000e-1 2.217984456040000e-1 2.255263066080000e-1 2.293140071370000e-1
2.331623684480000e-1 2.370722154270000e-1 2.410443761150000e-1 2.450796812020000e-1
2.491789634910000e-1 2.533430573150000e-1 2.575727979150000e-1 2.618690207800000e-1
2.662325609390000e-1 2.706642522060000e-1 2.751649263720000e-1 2.797354123550000e-1
2.843765352830000e-1 2.890891155270000e-1 2.938739676750000e-1 2.987318994350000e-1
3.036637104780000e-1 3.086701912110000e-1 3.137521214750000e-1 3.189102691700000e-1
3.241453887930000e-1 3.294582199020000e-1 3.348494854860000e-1 3.403198902490000e-1
3.458701187930000e-1 3.515008337040000e-1 3.572126735410000e-1 3.630062507040000e-1
3.688821492040000e-1 3.748409223040000e-1 3.808830900480000e-1 3.870091366570000e-1
3.932195078020000e-1 3.995146077300000e-1 4.058947962610000e-1 4.123603856330000e-1
4.189116372000000e-1 4.255487579730000e-1 4.322718970020000e-1 4.390811415950000e-1
4.459765133629999e-1 4.529579640990001e-1 4.600253714750000e-1 4.671785345520000e-1
4.744171691120000e-1 4.817409028000000e-1 4.891492700630000e-1 4.966417069020000e-1
5.042175454260000e-1 5.118760081940001e-1 5.196162023679999e-1 5.274371136460000e-1
5.353376000059999e-1 5.433163852290001e-1 5.513720522280000e-1 5.595030361659999e-1
5.677076173740000e-1 5.759839140640000e-1 5.843298748520001e-1 5.927432710760000e-1
6.012216889289999e-1 6.097625214080001e-1 6.183629600710000e-1 6.270199866320000e-1
6.357303643690000e-1 6.444906293790000e-1 6.532970816680001e-1 6.621457760829999e-1
6.710325130990000e-1 6.799528294529999e-1 6.889019886440000e-1 6.978749712790000e-1
7.068664652920001e-1 7.158708560050000e-1 7.248822160590001e-1 7.338942951830000e-1
7.429005098119999e-1 7.518939325400000e-1 7.608672813960000e-1 7.698129089360000e-1
7.787227911450000e-1 7.875885161290000e-1 7.964012726080000e-1 8.051518382050000e-1
8.138305675460000e-1 8.224273801939999e-1 8.309317484760001e-1 8.393326852680000e-1
8.476187318470000e-1 8.557779459719999e-1 8.637978904019999e-1 8.716656221210000e-1
8.793676826460000e-1 8.868900898630001e-1 8.942183319880000e-1 9.013373643280001e-1
9.082316097380000e-1 9.148849637520000e-1 9.212808056100000e-1 9.274020165180000e-1
9.332310066890001e-1 9.387497528390000e-1 9.439398479070000e-1 9.487825648250000e-1
9.532589360870000e-1 9.573498506440000e-1 9.610361692600000e-1 9.642988587769999e-1
9.671191447580000e-1 9.694786805500000e-1 9.713597289659999e-1 9.727453503300000e-1
9.736195877060000e-1 9.739676365910000e-1 9.737759825059999e-1 9.730324859420000e-1
9.717263907280000e-1 9.698482300030001e-1 9.673896052660000e-1 9.643428210240000e-1
9.607003742380000e-1 9.564543299509999e-1 9.515956750040001e-1 9.461138615230000e-1
9.399968331610001e-1 9.332320858260001e-1 9.258096677539999e-1 9.177284126729999e-1
9.090005013990000e-1 8.996429233230000e-1 8.896739054540001e-1 8.791127549380001e-1
8.679798306500000e-1 8.562964959749999e-1 8.440850693030001e-1 8.313687713700000e-1
8.181716704599999e-1 8.045186246669999e-1 7.904352221380000e-1 7.759477185790001e-1
7.610829728160001e-1 7.458683798080000e-1 7.303318017730000e-1 7.145014969330000e-1
6.984060464400001e-1 6.820742791250000e-1 6.655351945230001e-1 6.488178840160001e-1
6.319514504480001e-1 6.149649263060000e-1 5.978871907580000e-1 5.807468859180000e-1
5.635723326199999e-1 5.463914463480000e-1 5.292316536380000e-1 5.121198098600001e-1
4.950821187090000e-1 4.781440545420000e-1 4.613302878760000e-1 4.446646152860000e-1
4.281698939570000e-1 4.118679821310000e-1 3.957796855020000e-1 3.799247107190000e-1
3.643216257760000e-1 3.489878282070000e-1 3.339395205920000e-1 3.191916939760000e-1
3.047581183890000e-1 2.906513407880000e-1 2.768826893080000e-1 2.634622838890000e-1
2.503990519860000e-1 2.377007492280000e-1 2.253739836780000e-1 2.134242434730000e-1
2.018559265750000e-1 1.906723724370000e-1 1.798758945110000e-1 1.694678135430000e-1
1.594484908540000e-1 1.498173617580000e-1 1.405729686370000e-1 1.317129940060000e-1
1.232342934030000e-1 1.151329285820000e-1 1.074042010290000e-1 1.000426863630000e-1
9.304226971439999e-2 8.639618258890000e-2 8.009704129399999e-2 7.413688727530000e-2
6.850722933910001e-2 6.319908790190000e-2 5.820304109399999e-2 5.350927265030000e-2
4.910762126790000e-2 4.498763118940000e-2 4.113860358280000e-2 3.754964835750000e-2
3.420973593280000e-2 3.110774854380000e-2 2.823253060140000e-2 2.557293769410000e-2
2.311788379520000e-2 2.085638631160000e-2 1.877760861700000e-2 1.687089978390000e-2
1.512583125350000e-2 1.353223025420000e-2 1.208020980820000e-2 1.076019523410000e-2
9.562947087590000e-3 8.479580534840000e-3 7.501581192820001e-3 6.620817511019999e-3
5.829549801910000e-3 5.120436060850000e-3 4.486534740480000e-3 3.921304668810000e-3
3.418602317110000e-3 2.972676638770000e-3 2.578161709550000e-3 2.230067406790000e-3
1.923768367180000e-3 1.654991462910000e-3 1.419802031950000e-3 1.214589092300000e-3
1.036049761550000e-3 8.811730920690000e-4 7.472235202389999e-4 6.317241137750001e-4
5.324397867230001e-4 4.473606356710000e-4 3.746855345770000e-4 3.128061091480000e-4
2.602911951780000e-4 2.158718691290000e-4 1.784271234420000e-4 1.469702440290000e-4
1.206359331160000e-4 9.866820727200000e-5 8.040908821859999e-5 6.528809281670000e-5
5.281251868830000e-5 4.255851313620001e-5 3.416290539059999e-5 2.731577550620000e-5
2.175373070290000e-5 1.725384965290000e-5 1.362825849920000e-5 1.071929727980000e-5
8.395234502769998e-6 6.546487207889999e-6 5.082304049070000e-6 3.927869717470001e-6
3.021790309380000e-6 2.313920927870000e-6 1.763498810680000e-6 1.337547515760000e-6
1.009520096310000e-6 7.581516924909999e-7 5.664944975660000e-7 4.211105720590000e-7
3.114004369639999e-7 2.290477421240000e-7 1.675625509330000e-7 1.219078872640000e-7
8.819614140179999e-8 6.344372021050000e-8 4.537394985310001e-8 3.225969778460000e-8
2.279847891870000e-8 1.601395580170000e-8 1.117874339350000e-8 7.754296151620000e-9
5.344399910290000e-9 3.659425349580001e-9 2.489035487090000e-9 1.681488142590000e-9
1.128046742960000e-9 7.513194495660001e-10 4.965968633109999e-10 3.254610271599999e-10
2.111006586720000e-10 1.348960512720000e-10 8.393737774630001e-11 4.921657877469999e-11
2.428869036340001e-11 4.234769878380000e-12 0.000000000000000e0 0.000000000000000e0
0.000000000000000e0 0.000000000000000e0 0.000000000000000e0 0.000000000000000e0
0.000000000000000e0 0.000000000000000e0 0.000000000000000e0 0.000000000000000e0
0.000000000000000e0 0.000000000000000e0 0.000000000000000e0 0.000000000000000e0
0.000000000000000e0 0.000000000000000e0 0.000000000000000e0 0.000000000000000e0
0.000000000000000e0 0.000000000000000e0 0.000000000000000e0 0.000000000000000e0
0.000000000000000e0 0.000000000000000e0 0.000000000000000e0 0.000000000000000e0
0.000000000000000e0 0.000000000000000e0 0.000000000000000e0 0.000000000000000e0
0.000000000000000e0 0.000000000000000e0 0.000000000000000e0 0.000000000000000e0
0.000000000000000e0 0.000000000000000e0 0.000000000000000e0 0.000000000000000e0
0.000000000000000e0 0.000000000000000e0 0.000000000000000e0 0.000000000000000e0
0.000000000000000e0 0.000000000000000e0 0.000000000000000e0 0.000000000000000e0
0.000000000000000e0 0.000000000000000e0 0.000000000000000e0 0.000000000000000e0
0.000000000000000e0 0.000000000000000e0 0.000000000000000e0 0.000000000000000e0
0.000000000000000e0 0.000000000000000e0 0.000000000000000e0 0.000000000000000e0
0.000000000000000e0 0.000000000000000e0 0.000000000000000e0 0.000000000000000e0
0.000000000000000e0 0.000000000000000e0 0.000000000000000e0 0.000000000000000e0
0.000000000000000e0 0.000000000000000e0 0.000000000000000e0 0.000000000000000e0
0.000000000000000e0 0.000000000000000e0 0.000000000000000e0 0.000000000000000e0
0.000000000000000e0 0.000000000000000e0 0.000000000000000e0 0.000000000000000e0
0.000000000000000e0 0.000000000000000e0 0.000000000000000e0 0.000000000000000e0
0.000000000000000e0 0.000000000000000e0 0.000000000000000e0 0.000000000000000e0
0.000000000000000e0 0.000000000000000e0 0.000000000000000e0 0.000000000000000e0
0.000000000000000e0
</PP_CHI.1>
<PP_CHI.2 index="2" label="2P" l="1" occupation="3.000000000000e0" n="0" pseudo_energy="0.000000000000e0" cutoff_radius="8.000000000000e-1" ultrasoft_cutoff_radius="1.100000000000e0">
0.000000000000000e0 9.159392136379999e-11 3.726651293520000e-10 8.529315531829999e-10
1.542500631030000e-9 2.451883670569999e-9 3.592010720659999e-9 4.974245971880001e-9
6.610403704600001e-9 8.512764803580000e-9 1.069409385910000e-8 1.316765687480000e-8
1.594723960420000e-8 1.904716653680000e-8 2.248232055700000e-8 2.626816330020000e-8
3.042075622840001e-8 3.495678245270000e-8 3.989356932700001e-8 4.524911184060000e-8
5.104209683850001e-8 5.729192809540001e-8 6.401875227709999e-8 7.124348581680000e-8
7.898784274070001e-8 8.727436347380003e-8 9.612644466210002e-8 1.055683700460000e-7
1.156253424200000e-7 1.263235167180000e-7 1.376900342660000e-7 1.497530582360000e-7
1.625418103510000e-7 1.760866088730000e-7 1.904189079400000e-7 2.055713382720000e-7
2.215777493130000e-7 2.384732528530000e-7 2.562942681780001e-7 2.750785688110000e-7
2.948653308870000e-7 3.156951832229999e-7 3.376102591530000e-7 3.606542501700000e-7
3.848724614540000e-7 4.103118693400000e-7 4.370211808080001e-7 4.650508950420001e-7
4.944533671580000e-7 5.252828741519999e-7 5.575956831620000e-7 5.914501221120000e-7
6.269066528309999e-7 6.640279467259999e-7 7.028789630990002e-7 7.435270302059998e-7
7.860419291370000e-7 8.304959806400001e-7 8.769641349620001e-7 9.255240648409998e-7
9.762562617320000e-7 1.029244135400000e-6 1.084574116970000e-6 1.142335765600000e-6
1.202621878880000e-6 1.265528606990000e-6 1.331155570990000e-6 1.399605985090000e-6
1.470986783290000e-6 1.545408750320000e-6 1.622986657290000e-6 1.703839401890000e-6
1.788090153640000e-6 1.875866504060000e-6 1.967300622170000e-6 2.062529415330000e-6
2.161694695710000e-6 2.264943352580000e-6 2.372427530500000e-6 2.484304813840000e-6
2.600738417590000e-6 2.721897384890000e-6 2.847956791400000e-6 2.979097956750000e-6
3.115508663410000e-6 3.257383383040001e-6 3.404923510880000e-6 3.558337608090000e-6
3.717841652689999e-6 3.883659299070000e-6 4.056022146580000e-6 4.235170017480000e-6
4.421351244449999e-6 4.614822968150001e-6 4.815851445089999e-6 5.024712366160000e-6
5.241691186270002e-6 5.467083465360000e-6 5.701195221280000e-6 5.944343294930001e-6
6.196855728000001e-6 6.459072153849999e-6 6.731344201999999e-6 7.014035916490000e-6
7.307524188940001e-6 7.612199206460001e-6 7.928464915159999e-6 8.256739499739998e-6
8.597455879629999e-6 8.951062222399999e-6 9.318022474890000e-6 9.698816912809999e-6
1.009394270930000e-5 1.050391452320000e-5 1.092926510790000e-5 1.137054594080000e-5
1.182832787490000e-5 1.230320181330000e-5 1.279577940620000e-5 1.330669377260000e-5
1.383660024690000e-5 1.438617715130000e-5 1.495612659520000e-5 1.554717530130000e-5
1.616007546170000e-5 1.679560562250000e-5 1.745457159960000e-5 1.813780742570000e-5
1.884617633060000e-5 1.958057175500000e-5 2.034191839960000e-5 2.113117331010000e-5
2.194932700040000e-5 2.279740461370000e-5 2.367646712460000e-5 2.458761258250000e-5
2.553197739740000e-5 2.651073767110001e-5 2.752511057350000e-5 2.857635576720000e-5
2.966577688080000e-5 3.079472303330000e-5 3.196459041100000e-5 3.317682389950000e-5
3.443291877099999e-5 3.573442243059999e-5 3.708293622290000e-5 3.848011730070000e-5
3.992768055840000e-5 4.142740063190001e-5 4.298111396780000e-5 4.459072096400000e-5
4.625818818390000e-5 4.798555064749999e-5 4.977491420080000e-5 5.162845796780001e-5
5.354843688640001e-5 5.553718433219999e-5 5.759711483249999e-5 5.973072687409999e-5
6.194060580790000e-5 6.422942685330001e-5 6.659995820690002e-5 6.905506425730001e-5
7.159770891200000e-5 7.423095903749999e-5 7.695798801920000e-5 7.978207944339999e-5
8.270663090580001e-5 8.573515795160001e-5 8.887129815160002e-5 9.211881531780000e-5
9.548160386490000e-5 9.896369332139997e-5 1.025692529960000e-4 1.063025968060000e-4
1.101681882690000e-4 1.141706456680000e-4 1.183147473950000e-4 1.226054374780000e-4
1.270478312970000e-4 1.316472214930000e-4 1.364090840920000e-4 1.413390848250000e-4
1.464430856730000e-4 1.517271516390000e-4 1.571975577450000e-4 1.628607962720000e-4
1.687235842590000e-4 1.747928712370000e-4 1.810758472530000e-4 1.875799511520000e-4
1.943128791500000e-4 2.012825937010000e-4 2.084973326660000e-4 2.159656187960000e-4
2.236962695440000e-4 2.316984072060000e-4 2.399814694180000e-4 2.485552200040000e-4
2.574297601990000e-4 2.666155402580000e-4 2.761233714570000e-4 2.859644385090000e-4
2.961503124040000e-4 3.066929636790000e-4 3.176047761570000e-4 3.288985611380000e-4
3.405875720890000e-4 3.526855198250000e-4 3.652065882080000e-4 3.781654503900000e-4
3.915772855989999e-4 4.054577965010000e-4 4.198232271530000e-4 4.346903815670000e-4
4.500766429000000e-4 4.659999933040000e-4 4.824790344449999e-4 4.995330087190001e-4
5.171818211860000e-4 5.354460622519999e-4 5.543470311160002e-4 5.739067600089999e-4
5.941480392590000e-4 6.150944431949999e-4 6.367703569350001e-4 6.592010040700000e-4
6.824124752860000e-4 7.064317579520001e-4 7.312867666980000e-4 7.570063750299999e-4
7.836204479980000e-4 8.111598759729999e-4 8.396566095430000e-4 8.691436955890000e-4
8.996553145680000e-4 9.312268190339999e-4 9.638947734580000e-4 9.976969953659999e-4
1.032672597850000e-3 1.068862033520000e-3 1.106307139850000e-3 1.145051186100000e-3
1.185138921780000e-3 1.226616626690000e-3 1.269532162590000e-3 1.313935026700000e-3
1.359876406800000e-3 1.407409238260000e-3 1.456588262880000e-3 1.507470089720000e-3
1.560113257830000e-3 1.614578301120000e-3 1.670927815300000e-3 1.729226526990000e-3
1.789541365110000e-3 1.851941534530000e-3 1.916498592160000e-3 1.983286525460000e-3
2.052381833430000e-3 2.123863610340000e-3 2.197813631940000e-3 2.274316444620000e-3
2.353459457240000e-3 2.435333035990000e-3 2.520030602210000e-3 2.607648733230000e-3
2.698287266530000e-3 2.792049406990000e-3 2.889041837610000e-3 2.989374833610000e-3
3.093162380080000e-3 3.200522293270000e-3 3.311576345590000e-3 3.426450394420000e-3
3.545274514890000e-3 3.668183136590000e-3 3.795315184540000e-3 3.926814224220000e-3
4.062828611090000e-3 4.203511644430000e-3 4.349021725770000e-3 4.499522521950000e-3
4.655183132930000e-3 4.816178264480000e-3 4.982688405789998e-3 5.154900012210000e-3
5.333005693090000e-3 5.517204405000000e-3 5.707701650230001e-3 5.904709680860000e-3
6.108447708389999e-3 6.319142119060000e-3 6.537026694980000e-3 6.762342841100000e-3
6.995339818230000e-3 7.236274982040001e-3 7.485414028289999e-3 7.743031244279999e-3
8.009409766510000e-3 8.284841844910002e-3 8.569629113310000e-3 8.864082866590001e-3
9.168524344260000e-3 9.483285020700000e-3 9.808706902030000e-3 1.014514282970000e-2
1.049295679040000e-2 1.085252423360000e-2 1.122423239430000e-2 1.160848062400000e-2
1.200568072690000e-2 1.241625730410000e-2 1.284064810280000e-2 1.327930437340000e-2
1.373269123200000e-2 1.420128802960000e-2 1.468558872710000e-2 1.518610227680000e-2
1.570335300930000e-2 1.623788102630000e-2 1.679024259850000e-2 1.736101056950000e-2
1.795077476350000e-2 1.856014239920000e-2 1.918973850650000e-2 1.984020634900000e-2
2.051220784880000e-2 2.120642401590000e-2 2.192355537990000e-2 2.266432242500000e-2
2.342946602680000e-2 2.421974789140000e-2 2.503595099560000e-2 2.587888002820000e-2
2.674936183190000e-2 2.764824584540000e-2 2.857640454480000e-2 2.953473388470000e-2
3.052415373710000e-2 3.154560833000000e-2 3.260006668270000e-2 3.368852303930000e-2
3.481199729930000e-2 3.597153544520000e-2 3.716820996730000e-2 3.840312028420001e-2
3.967739316120000e-2 4.099218312480000e-2 4.234867287429999e-2 4.374807369119999e-2
4.519162584600000e-2 4.668059900430000e-2 4.821629263220000e-2 4.980003640300001e-2
5.143319060610000e-2 5.311714656020000e-2 5.485332703270000e-2 5.664318666880000e-2
5.848821243090000e-2 6.038992405480000e-2 6.234987452410000e-2 6.436965056729999e-2
6.645087318450001e-2 6.859519820650000e-2 7.080431689409999e-2 7.307995658360000e-2
7.542388138550001e-2 7.783789294569999e-2 8.032383127559999e-2 8.288357566260000e-2
8.551904566979999e-2 8.823220223470001e-2 9.102504887989999e-2 9.389963304520000e-2
9.685804755460000e-2 9.990243222920000e-2 1.030349756580000e-1 1.062579171420000e-1
1.095735488120000e-1 1.129842179530000e-1 1.164923295150000e-1 1.201003488430000e-1
1.238108046230000e-1 1.276262920440000e-1 1.315494761750000e-1 1.355830955650000e-1
1.397299660320000e-1 1.439929846510000e-1 1.483751338960000e-1 1.528794859100000e-1
1.575092068610000e-1 1.622675613220000e-1 1.671579166090000e-1 1.721837469820000e-1
1.773486376150000e-1 1.826562881950000e-1 1.881105160060000e-1 1.937152583260000e-1
1.994745739150000e-1 2.053926433750000e-1 2.114737681030000e-1 2.177223675180000e-1
2.241429742300000e-1 2.307402267540000e-1 2.375188593250000e-1 2.444836883550000e-1
2.516395950000000e-1 2.589915032690000e-1 2.665443530810000e-1 2.743030676190000e-1
2.822725143220000e-1 2.904574588150000e-1 2.988625110880000e-1 3.074920632410000e-1
3.163502181290000e-1 3.254407083130000e-1 3.347668048090000e-1 3.443312152350000e-1
3.541359711430000e-1 3.641823045490000e-1 3.744705139160000e-1 3.849998202510000e-1
3.957682143380000e-1 4.067722966920000e-1 4.180071123490000e-1 4.294659833530000e-1
4.411403425290000e-1 4.530195730270000e-1 4.650908590680000e-1 4.773390543320001e-1
4.897465755110000e-1 5.022933296180000e-1 5.149566846750000e-1 5.277114943500000e-1
5.405301878760000e-1 5.533829370010000e-1 5.662379118220001e-1 5.790616367480000e-1
5.918194565709999e-1 6.044761203009999e-1 6.169964869240000e-1 6.293463522190001e-1
6.414933890340000e-1 6.534081846379999e-1 6.650653477950001e-1 6.764446448050000e-1
6.875321080320001e-1 6.983210424320000e-1 7.088128358940001e-1 7.190174586560000e-1
7.289535170190000e-1 7.386477093470000e-1 7.481335207630000e-1 7.574489914030000e-1
7.666334067910000e-1 7.757227949020001e-1 7.847441809899999e-1 7.937086578600000e-1
8.026034861330000e-1 8.113836558870000e-1 8.199636246130000e-1 8.282102969869999e-1
8.359387172229999e-1 8.429123698710001e-1 8.488503583069999e-1 8.534439207320000e-1
8.563845280240001e-1 8.574048225769999e-1 8.563313423849999e-1 8.531435064929999e-1
8.480249327130000e-1 8.413795665160000e-1 8.337628400909999e-1 8.256468094450000e-1
8.171622921170000e-1 8.083198161560000e-1 7.991278065039999e-1 7.895958691400001e-1
7.797341456580000e-1 7.695532984330001e-1 7.590644952930000e-1 7.482793928060000e-1
7.372101190050000e-1 7.258692547050000e-1 7.142698141390000e-1 7.024252241209999e-1
6.903493023290000e-1 6.780562340200000e-1 6.655605476100001e-1 6.528770885400000e-1
6.400209917260000e-1 6.270076521380000e-1 6.138526936910001e-1 6.005719361400001e-1
5.871813600659999e-1 5.736970698610000e-1 5.601352547290000e-1 5.465121478510000e-1
5.328439837190000e-1 5.191469540510000e-1 5.054371623280000e-1 4.917305776280000e-1
4.780429878330000e-1 4.643899531410000e-1 4.507867599840000e-1 4.372483764460000e-1
4.237894092800000e-1 4.104240636789999e-1 3.971661058210000e-1 3.840288292940000e-1
3.710250252500000e-1 3.581669572650000e-1 3.454663404870000e-1 3.329343258510000e-1
3.205814886610000e-1 3.084178220380000e-1 2.964527342980000e-1 2.846950504720000e-1
2.731530168340000e-1 2.618343084300000e-1 2.507460383630000e-1 2.398947686950000e-1
2.292865217180000e-1 2.189267914510000e-1 2.088205542450000e-1 1.989722784380000e-1
1.893859322120000e-1 1.800649897770000e-1 1.710124353480000e-1 1.622307653090000e-1
1.537219883470000e-1 1.454876241810000e-1 1.375287009690000e-1 1.298457521730000e-1
1.224388131490000e-1 1.153074182860000e-1 1.084505990350000e-1 1.018668835810000e-1
9.555429845429998e-2 8.951037265210001e-2 8.373214446570000e-2 7.821617136150000e-2
7.295854293800000e-2 6.795489709860001e-2 6.320043929749999e-2 5.868996480310001e-2
5.441788370900000e-2 5.037824848920001e-2 4.656478373980000e-2 4.297091781140000e-2
3.958981593100000e-2 3.641441447330001e-2 3.343745597740000e-2 3.065152456150000e-2
2.804908135970000e-2 2.562249965630000e-2 2.336409938790000e-2 2.126618073150000e-2
1.932105650570000e-2 1.752108315810000e-2 1.585869012720000e-2 1.432640741020000e-2
1.291689118750000e-2 1.162294739360000e-2 1.043755314490000e-2 9.353875967040000e-3
8.365290788930000e-3 7.465394694280000e-3 6.648019445190000e-3 5.907241812660001e-3
5.237391767540000e-3 4.633058603390000e-3 4.089095076670000e-3 3.600619663669999e-3
3.163017044390000e-3 2.771936932670000e-3 2.423291379500000e-3 2.113250681770000e-3
1.838238032370000e-3 1.594923049730000e-3 1.380214325120000e-3 1.191251125160000e-3
1.025394384270000e-3 8.802171181950001e-4 7.534943849340001e-4 6.431929131720000e-4
5.474605119930001e-4 4.646153678310000e-4 3.931353266950000e-4 3.316472511490000e-4
2.789165326930000e-4 2.338368312040000e-4 1.954201036530000e-4 1.627869734660000e-4
1.351574985510000e-4 1.118423525330000e-4 9.223446145840001e-5 7.580111407030000e-5
6.207655845310001e-5 5.065509165520000e-5 4.118464288470000e-5 3.336084550710000e-5
2.692158834280000e-5 2.164203267580000e-5 1.733007794150000e-5 1.382225624110000e-5
1.098003360550000e-5 8.686494273939999e-6 6.843383119029999e-6 5.368480698250000e-6
4.193285192000000e-6 3.260975654190000e-6 2.524631495780000e-6 1.945683899150000e-6
1.492575867390000e-6 1.139608801920000e-6 8.659548278430002e-7 6.548155073610000e-7
4.927090595789999e-7 3.688697063210000e-7 2.747442583400000e-7 2.035725201410000e-7
1.500395035520000e-7 1.099887841270000e-7 8.018759788760001e-8 5.813545033660001e-8
4.190908955299999e-8 3.003767812760000e-8 2.140288469080000e-8 1.515940686610000e-8
1.067213740240000e-8 7.466798969940001e-9 5.191406563770000e-9 3.586376163340001e-9
2.461491048310000e-9 1.678270074570000e-9 1.136561499010000e-9 7.644190430180000e-10
5.105093597310000e-10 3.384575420220000e-10 2.226653778410000e-10 1.452401229250000e-10
9.375372208789999e-11 5.961719283659999e-11 3.690522432670000e-11 2.150427297420000e-11
1.048521086060000e-11 1.619720949370000e-12 0.000000000000000e0 0.000000000000000e0
0.000000000000000e0 0.000000000000000e0 0.000000000000000e0 0.000000000000000e0
0.000000000000000e0 0.000000000000000e0 0.000000000000000e0 0.000000000000000e0
0.000000000000000e0 0.000000000000000e0 0.000000000000000e0 0.000000000000000e0
0.000000000000000e0 0.000000000000000e0 0.000000000000000e0 0.000000000000000e0
0.000000000000000e0 0.000000000000000e0 0.000000000000000e0 0.000000000000000e0
0.000000000000000e0 0.000000000000000e0 0.000000000000000e0 0.000000000000000e0
0.000000000000000e0 0.000000000000000e0 0.000000000000000e0 0.000000000000000e0
0.000000000000000e0 0.000000000000000e0 0.000000000000000e0 0.000000000000000e0
0.000000000000000e0 0.000000000000000e0 0.000000000000000e0 0.000000000000000e0
0.000000000000000e0 0.000000000000000e0 0.000000000000000e0 0.000000000000000e0
0.000000000000000e0 0.000000000000000e0 0.000000000000000e0 0.000000000000000e0
0.000000000000000e0 0.000000000000000e0 0.000000000000000e0 0.000000000000000e0
0.000000000000000e0 0.000000000000000e0 0.000000000000000e0 0.000000000000000e0
0.000000000000000e0 0.000000000000000e0 0.000000000000000e0 0.000000000000000e0
0.000000000000000e0 0.000000000000000e0 0.000000000000000e0 0.000000000000000e0
0.000000000000000e0 0.000000000000000e0 0.000000000000000e0 0.000000000000000e0
0.000000000000000e0 0.000000000000000e0 0.000000000000000e0 0.000000000000000e0
0.000000000000000e0 0.000000000000000e0 0.000000000000000e0 0.000000000000000e0
0.000000000000000e0 0.000000000000000e0 0.000000000000000e0 0.000000000000000e0
0.000000000000000e0
</PP_CHI.2>
</PP_PSWFC>
<PP_RHOATOM>
0.000000000000000e0 3.280370458040000e-10 1.334673374730000e-9 3.054713054630000e-9
5.524355153940000e-9 8.781245173450001e-9 1.286452830840000e-8 1.781490460510000e-8
2.367468607790000e-8 3.048785585620000e-8 3.830012943070000e-8 4.715901807489999e-8
5.711389451460001e-8 6.821606092770000e-8 8.051881935259999e-8 9.407754459080000e-8
1.089497596910000e-7 1.251952141050000e-7 1.428759646070000e-7 1.620564590740000e-7
1.828036232300000e-7 2.051869504490000e-7 2.292785947360000e-7 2.551534669850000e-7
2.828893346340000e-7 3.125669248359999e-7 3.442700312690000e-7 3.780856247050000e-7
4.141039674780000e-7 4.524187319820000e-7 4.931271233420000e-7 5.363300063990001e-7
5.821320371640001e-7 6.306417988919999e-7 6.819719429450000e-7 7.362393345980001e-7
7.935652039710001e-7 8.540753022659999e-7 9.179000634770000e-7 9.851747717900000e-7
1.056039734840000e-6 1.130640463080000e-6 1.209127855360000e-6 1.291658391130000e-6
1.378394329280000e-6 1.469503913980000e-6 1.565161587740000e-6 1.665548211910000e-6
1.770851294930000e-6 1.881265228540000e-6 1.996991532250000e-6 2.118239106399999e-6
2.245224494040000e-6 2.378172151940000e-6 2.517314731149999e-6 2.662893367310000e-6
2.815157981100000e-6 2.974367589190000e-6 3.140790626099999e-6 3.314705277219999e-6
3.496399823490000e-6 3.686172998160000e-6 3.884334355880000e-6 4.091204654809999e-6
4.307116251940001e-6 4.532413512250000e-6 4.767453232159998e-6 5.012605077660001e-6
5.268252037809999e-6 5.534790893989999e-6 5.812632705470000e-6 6.102203311969999e-6
6.403943853690000e-6 6.718311309399999e-6 7.045779053360000e-6 7.386837431559999e-6
7.741994358060000e-6 8.111775932020002e-6 8.496727076290000e-6 8.897412198120001e-6
9.314415872970001e-6 9.748343552000001e-6 1.019982229420000e-5 1.066950152400000e-5
1.115805381520000e-5 1.166617570210000e-5 1.219458851910000e-5 1.274403926890000e-5
1.331530152160000e-5 1.390917634430000e-5 1.452649326370000e-5 1.516811126170000e-5
1.583491980540000e-5 1.652783991380000e-5 1.724782526010000e-5 1.799586331380000e-5
1.877297652120000e-5 1.958022352770000e-5 2.041870044210000e-5 2.128954214510000e-5
2.219392364270000e-5 2.313306146730000e-5 2.410821512660000e-5 2.512068860350000e-5
2.617183190760000e-5 2.726304268060000e-5 2.839576785740000e-5 2.957150538510000e-5
3.079180600100000e-5 3.205827507270000e-5 3.337257450209999e-5 3.473642469520000e-5
3.615160660000000e-5 3.761996381560000e-5 3.914340477380001e-5 4.072390499680000e-5
4.236350943310000e-5 4.406433487400000e-5 4.582857245420000e-5 4.765849023900000e-5
4.955643590100000e-5 5.152483948980001e-5 5.356621629770000e-5 5.568316982389999e-5
5.787839484290000e-5 6.015468057769999e-5 6.251491398390002e-5 6.496208314710000e-5
6.749928079840001e-5 7.012970795130000e-5 7.285667766440000e-5 7.568361893529998e-5
7.861408072870001e-5 8.165173614380002e-5 8.480038672680001e-5 8.806396693220000e-5
9.144654873879999e-5 9.495234642570001e-5 9.858572151320001e-5 1.023511878760000e-4
1.062534170310000e-4 1.102972436130000e-4 1.144876710320000e-4 1.188298773390000e-4
1.233292212770000e-4 1.279912485630000e-4 1.328216983690000e-4 1.378265100350000e-4
1.430118300200000e-4 1.483840190840000e-4 1.539496597210000e-4 1.597155638580000e-4
1.656887808070000e-4 1.718766055050000e-4 1.782865870300000e-4 1.849265374190000e-4
1.918045407850000e-4 1.989289627560000e-4 2.063084602390000e-4 2.139519915190000e-4
2.218688267100000e-4 2.300685585730000e-4 2.385611136990000e-4 2.473567640880001e-4
2.564661391270000e-4 2.659002379800000e-4 2.756704424110000e-4 2.857885300520000e-4
2.962666881250000e-4 3.071175276490000e-4 3.183540981320000e-4 3.299899027750000e-4
3.420389142050000e-4 3.545155907500000e-4 3.674348932830001e-4 3.808123026470000e-4
3.946638376830000e-4 4.090060738909999e-4 4.238561627320000e-4 4.392318515980000e-4
4.551515044849999e-4 4.716341233740000e-4 4.886993703589999e-4 5.063675905450000e-4
5.246598357370001e-4 5.435978889520000e-4 5.632042897930000e-4 5.835023606889999e-4
6.045162340590000e-4 6.262708804170001e-4 6.487921374550000e-4 6.721067401349999e-4
6.962423518310001e-4 7.212275965549999e-4 7.470920923030000e-4 7.738664855640001e-4
8.015824870290000e-4 8.302729085479999e-4 8.599717013690000e-4 8.907139957149999e-4
9.225361417409999e-4 9.554757519180001e-4 9.895717448940001e-4 1.024864390890000e-3
1.061395358690000e-3 1.099207764250000e-3 1.138346221010000e-3 1.178856892000000e-3
1.220787543720000e-3 1.264187601960000e-3 1.309108209480000e-3 1.355602285840000e-3
1.403724589210000e-3 1.453531780440000e-3 1.505082489270000e-3 1.558437383000000e-3
1.613659237430000e-3 1.670813010420000e-3 1.729965917920000e-3 1.791187512790000e-3
1.854549766270000e-3 1.920127152440000e-3 1.987996735560000e-3 2.058238260570000e-3
2.130934246700000e-3 2.206170084460000e-3 2.284034136020000e-3 2.364617839160000e-3
2.448015814850000e-3 2.534325978740000e-3 2.623649656490000e-3 2.716091703250000e-3
2.811760627420000e-3 2.910768718730000e-3 3.013232180910000e-3 3.119271269130000e-3
3.229010432260000e-3 3.342578460290000e-3 3.460108636920000e-3 3.581738897740000e-3
3.707611993920001e-3 3.837875661900000e-3 3.972682799080001e-3 4.112191645899999e-3
4.256565974380000e-3 4.405975283560000e-3 4.560595001869999e-3 4.720606696919999e-3
4.886198292810001e-3 5.057564295340001e-3 5.234906025360000e-3 5.418431860629999e-3
5.608357486510000e-3 5.804906155660000e-3 6.008308957350001e-3 6.218805096590000e-3
6.436642183400000e-3 6.662076532800000e-3 6.895373475720000e-3 7.136807681490000e-3
7.386663492040000e-3 7.645235268630000e-3 7.912827751300000e-3 8.189756431680001e-3
8.476347939670001e-3 8.772940444530001e-3 9.079884070870001e-3 9.397541330280001e-3
9.726287569080000e-3 1.006651143290000e-2 1.041861534870000e-2 1.078301602520000e-2
1.116014497170000e-2 1.155044903720000e-2 1.195439096960000e-2 1.237244999620000e-2
1.280512242660000e-2 1.325292227830000e-2 1.371638192670000e-2 1.419605277960000e-2
1.469250597800000e-2 1.520633312430000e-2 1.573814703770000e-2 1.628858254020000e-2
1.685829727170000e-2 1.744797253880000e-2 1.805831419460000e-2 1.869005355500000e-2
1.934394834970000e-2 2.002078371140000e-2 2.072137320350000e-2 2.144655988900000e-2
2.219721744180000e-2 2.297425130170000e-2 2.377859987630000e-2 2.461123579020000e-2
2.547316718490000e-2 2.636543907030000e-2 2.728913473130000e-2 2.824537719060000e-2
2.923533073090000e-2 3.026020247860000e-2 3.132124405250000e-2 3.241975327830000e-2
3.355707597390000e-2 3.473460780740000e-2 3.595379623100000e-2 3.721614249370000e-2
3.852320373700000e-2 3.987659517620000e-2 4.127799237170000e-2 4.272913359280000e-2
4.423182227990000e-2 4.578792960690000e-2 4.739939714969999e-2 4.906823966400000e-2
5.079654797800000e-2 5.258649200320001e-2 5.444032386970000e-2 5.636038118960000e-2
5.834909045430000e-2 6.040897057090000e-2 6.254263654269999e-2 6.475280330010000e-2
6.704228968650000e-2 6.941402260569999e-2 7.187104133749999e-2 7.441650202509999e-2
7.705368234330000e-2 7.978598635180000e-2 8.261694954069998e-2 8.555024407430000e-2
8.858968423960000e-2 9.173923210609999e-2 9.500300340259999e-2 9.838527361870000e-2
1.018904843350000e-1 1.055232497910000e-1 1.092883636930000e-1 1.131908062720000e-1
1.172357515930000e-1 1.214285751200000e-1 1.257748615540000e-1 1.302804129230000e-1
1.349512569550000e-1 1.397936557200000e-1 1.448141145470000e-1 1.500193912220000e-1
1.554165054620000e-1 1.610127486660000e-1 1.668156939430000e-1 1.728332064180000e-1
1.790734538000000e-1 1.855449172170000e-1 1.922564023050000e-1 1.992170505520000e-1
2.064363508640000e-1 2.139241513630000e-1 2.216906713950000e-1 2.297465137100000e-1
2.381026768310000e-1 2.467705675520000e-1 2.557620135610000e-1 2.650892761510000e-1
2.747650629810000e-1 2.848025408690000e-1 2.952153485500000e-1 3.060176093820000e-1
3.172239439350000e-1 3.288494824190000e-1 3.409098769010000e-1 3.534213132380000e-1
3.664005226740000e-1 3.798647930360000e-1 3.938319794420000e-1 4.083205144660000e-1
4.233494176650000e-1 4.389383043840000e-1 4.551073937660000e-1 4.718775158510001e-1
4.892701176870000e-1 5.073072683370000e-1 5.260116626780000e-1 5.454066238810000e-1
5.655161044450000e-1 5.863646856619999e-1 6.079775753709999e-1 6.303806038460000e-1
6.536002176680000e-1 6.776634713840000e-1 7.025980167530000e-1 7.284320893550000e-1
7.551944922920000e-1 7.829145766720000e-1 8.116222185260000e-1 8.413477917349999e-1
8.721221364629999e-1 9.039765225220000e-1 9.369426069470000e-1 9.710523849630000e-1
1.006338133340000e0 1.042832344950000e0 1.080567653140000e0 1.119576744220000e0
1.159892256190000e0 1.201546661310000e0 1.244572129940000e0 1.289000372480000e0
1.334862455890000e0 1.382188590680000e0 1.431007883760000e0 1.481348051940000e0
1.533235090350000e0 1.586692889310000e0 1.641742793010000e0 1.698403092360000e0
1.756688444770000e0 1.816609212790000e0 1.878170714320000e0 1.941372377230000e0
2.006206792600000e0 2.072658662200000e0 2.140703638680000e0 2.210307060010000e0
2.281422584680000e0 2.353990740000000e0 2.427937403420000e0 2.503172245950000e0
2.579587177920000e0 2.657054850060000e0 2.735427277460000e0 2.814534669830000e0
2.894184568260000e0 2.974161404900000e0 3.054226617220000e0 3.134119459230000e0
3.213558657320000e0 3.292245053210000e0 3.369865357300000e0 3.446097097350000e0
3.520614783260000e0 3.593097213610000e0 3.663235716440000e0 3.730742941770000e0
3.795361605920000e0 3.856872331920000e0 3.915099454900000e0 3.969913399170000e0
4.021228049470000e0 4.068991538620000e0 4.113169229430000e0 4.153718649790000e0
4.190558156390000e0 4.223534771040000e0 4.252402869490000e0 4.276835544600000e0
4.296508950490000e0 4.311232174750000e0 4.320919607700000e0 4.325506092510000e0
4.324946639860000e0 4.319217389140000e0 4.308316373930000e0 4.292263894500000e0
4.271102385830000e0 4.244895525160000e0 4.213726479520000e0 4.177695137210000e0
4.136914503540000e0 4.091506596010000e0 4.041598861750000e0 3.987323015540000e0
3.928816983420000e0 3.866230809690000e0 3.799735609650000e0 3.729528809960000e0
3.655826427930000e0 3.578857525050000e0 3.498855040640000e0 3.416063353320000e0
3.330733959090000e0 3.243124188700000e0 3.153495906490000e0 3.062114191880000e0
2.969246018910000e0 2.875158935960000e0 2.780119760050000e0 2.684393288260000e0
2.588241039370000e0 2.491920028940000e0 2.395681589220000e0 2.299770237510000e0
2.204422602790000e0 2.109866414620000e0 2.016319562340000e0 1.923989228820000e0
1.833071105170000e0 1.743748690700000e0 1.656192682870000e0 1.570560461310000e0
1.486995668890000e0 1.405627893400000e0 1.326572450680000e0 1.249930271920000e0
1.175787893490000e0 1.104217550420000e0 1.035277369420000e0 9.690116603030001e-1
9.054512989730000e-1 8.446141985890000e-1 7.865058592680000e-1 7.311199907910000e-1
6.784391965099999e-1 6.284357111230000e-1 5.810721792660000e-1 5.363024665760000e-1
4.940724899920000e-1 4.543210589110000e-1 4.169807148579999e-1 3.819785622050000e-1
3.492370794090000e-1 3.186749049540000e-1 2.902075899110000e-1 2.637483133720000e-1
2.392085553400000e-1 2.164987254830000e-1 1.955287448670000e-1 1.762085809630000e-1
1.584487351250000e-1 1.421606842270000e-1 1.272572771050000e-1 1.136530882810000e-1
1.012647304110000e-1 9.001112811480001e-2 7.981375491000000e-2 7.059683567970000e-2
6.228751629020000e-2 5.481600241530000e-2 4.811566894440000e-2 4.212314167420000e-2
3.677835249960000e-2 3.202456959630000e-2 2.780840380650000e-2 2.407979270800000e-2
2.079196372470000e-2 1.790137789160000e-2 1.536765586500000e-2 1.315348798090000e-2
1.122453017480000e-2 9.549287722750000e-3 8.098988755790000e-3 6.847449560839999e-3
5.770933631120000e-3 4.848006404300000e-3 4.059387524010000e-3 3.387802364940000e-3
2.817834414360000e-3 2.335779957960000e-3 1.929506342740000e-3 1.588314918570000e-3
1.302809576750000e-3 1.064771628420000e-3 8.670415912950000e-4 7.034082910800000e-4
5.685055309470000e-4 4.577164454780000e-4 3.670855318860000e-4 2.932382450150000e-4
2.333079516320000e-4 1.848699650980000e-4 1.458823220300000e-4 1.146329178320000e-4
8.969258630200001e-5 6.987368897630000e-5 5.419377081130000e-5 4.184383886870000e-5
3.216082842110000e-5 2.460383490960000e-5 1.873370915380000e-5 1.419563592680000e-5
1.070434135570000e-5 8.031601614170000e-6 5.995753200040000e-6 4.452933016740000e-6
3.289803915309999e-6 2.417547833330000e-6 1.766933826580000e-6 1.284291865340000e-6
9.282450856420001e-7 6.670731448280000e-7 4.765973942960001e-7 3.384947649229999e-7
2.389616189200000e-7 1.676614435820000e-7 1.169012579810000e-7 8.099109870660001e-8
5.574909738330001e-8 3.812152580170000e-8 2.589304628760000e-8 1.746723320730000e-8
1.170145715640000e-8 7.783527857180000e-9 5.140184015160000e-9 3.369694332109999e-9
2.192578171970000e-9 1.415841183470000e-9 9.072146530099999e-10 5.767423647479999e-10
3.637216725890000e-10 2.275151344159999e-10 1.411375084100000e-10 8.681642253460000e-11
5.294486213239999e-11 3.200681212430000e-11 1.917744682740000e-11 1.138678047840000e-11
6.698905223240001e-12 3.904174843300000e-12 2.253750863670000e-12 1.288431411630000e-12
7.293261874459999e-13 4.087074709160000e-13 2.267031492120000e-13 1.244455700610001e-13
6.759268254240002e-14 3.631938038989999e-14 1.930254300120001e-14 1.014484647870000e-14
5.271660296939999e-15 2.707915261409999e-15 1.374743624830000e-15 6.896346936690000e-16
3.417726743690002e-16 1.672956530830000e-16 8.086619663150000e-17 3.859112618020000e-17
1.817799427380001e-17 8.449807126490001e-18 3.875316091179998e-18 1.753009405540000e-18
7.818594126750000e-19 3.436605204230000e-19 1.487396102420000e-19 6.328407940049998e-20
2.636928099870000e-20 1.066262895730000e-20 4.085986714129999e-21 1.387301257010000e-21
3.298189376580001e-22 7.870487796629999e-24 0.000000000000000e0 0.000000000000000e0
0.000000000000000e0 0.000000000000000e0 0.000000000000000e0 0.000000000000000e0
0.000000000000000e0 0.000000000000000e0 0.000000000000000e0 0.000000000000000e0
0.000000000000000e0 0.000000000000000e0 0.000000000000000e0 0.000000000000000e0
0.000000000000000e0 0.000000000000000e0 0.000000000000000e0 0.000000000000000e0
0.000000000000000e0 0.000000000000000e0 0.000000000000000e0 0.000000000000000e0
0.000000000000000e0 0.000000000000000e0 0.000000000000000e0 0.000000000000000e0
0.000000000000000e0 0.000000000000000e0 0.000000000000000e0 0.000000000000000e0
0.000000000000000e0 0.000000000000000e0 0.000000000000000e0 0.000000000000000e0
0.000000000000000e0 0.000000000000000e0 0.000000000000000e0 0.000000000000000e0
0.000000000000000e0 0.000000000000000e0 0.000000000000000e0 0.000000000000000e0
0.000000000000000e0 0.000000000000000e0 0.000000000000000e0 0.000000000000000e0
0.000000000000000e0 0.000000000000000e0 0.000000000000000e0 0.000000000000000e0
0.000000000000000e0 0.000000000000000e0 0.000000000000000e0 0.000000000000000e0
0.000000000000000e0 0.000000000000000e0 0.000000000000000e0 0.000000000000000e0
0.000000000000000e0 0.000000000000000e0 0.000000000000000e0 0.000000000000000e0
0.000000000000000e0 0.000000000000000e0 0.000000000000000e0 0.000000000000000e0
0.000000000000000e0 0.000000000000000e0 0.000000000000000e0 0.000000000000000e0
0.000000000000000e0 0.000000000000000e0 0.000000000000000e0 0.000000000000000e0
0.000000000000000e0 0.000000000000000e0 0.000000000000000e0 0.000000000000000e0
0.000000000000000e0
</PP_RHOATOM>
</UPF>
