79

Zn         0.00000        0.00000        0.00000
C          4.12735        -0.68977       -0.48480
C          4.12813         0.68560       -0.48410
C          2.83986        -1.10594        0.00996
C          2.84083         1.10271        0.01018
C          2.41931        -2.43176        0.28567
C          5.47701        -4.64757        0.69062
C          5.01484        -5.84945        0.14747
C          4.66156        -3.51691        0.70405
C          3.73098        -5.90807       -0.40513
C          3.35651        -3.56561        0.17678
C          2.91242        -4.78112       -0.39534
C          2.42166         2.42926        0.28238
C          5.48469         4.63453        0.70216
C          5.03090         5.83614        0.15154
C          4.66423         3.50729        0.71296
C          3.75123         5.89794       -0.41036
C          3.36339         3.55962        0.17593
C          2.92793         4.77478       -0.40298
C          1.09560        -2.76088        0.67344
C          1.09781         2.76208        0.66533
C          0.68052        -4.00409        1.27724
C          0.68336         4.00917        1.26107
C         -0.68575        -4.00411        1.27661
C         -0.68269         4.00892        1.26339
C         -1.10061        -2.76117        0.67253
C         -1.09847         2.76195        0.66843
C         -2.42445        -2.43175        0.28523
C         -2.92112        -4.78100       -0.39370
C         -3.36350        -3.56459        0.17798
C         -3.74065        -5.90718       -0.40206
C         -4.66833        -3.51414        0.70594
C         -5.02388        -5.84692        0.15185
C         -5.48486        -4.64411        0.69421
C         -2.42317         2.42916        0.28930
C         -2.94109         4.77554       -0.38637
C         -3.36790         3.55739        0.19244
C         -3.76979         5.89482       -0.38673
C         -4.66515         3.49764        0.73759
C         -5.04519         5.82589        0.18382
C         -5.49009         4.62152        0.73533
C         -2.84294        -1.10513        0.00999
C         -2.84264         1.10329        0.01367
C         -4.13054        -0.68717       -0.48274
C         -4.13066         0.68818       -0.47992
N          2.06443        -0.00120        0.26198
N         -0.00244        -1.99018        0.40295
N         -0.00062         1.98954        0.40106
N         -2.06600        -0.00120        0.26198
H          2.06443        -0.00120        1.1     
H         -2.06600        -0.00120        1.1     
H          5.65388        -6.73256        0.14360
H         -5.69193         6.70352        0.18595
H          5.67313         6.71687        0.14943
H         -5.66402        -6.72956        0.14856
H          4.94043        -1.34456       -0.77844
H          4.94180         1.33981       -0.77727
H          1.34584        -4.76830        1.66612
H          1.34914         4.77655        1.64289
H         -1.35155        -4.76807        1.66510
H         -1.34744         4.77621        1.64701
H         -4.94417        -1.34117       -0.77666
H         -4.94404         1.34373       -0.77098
H          6.47844        -4.59433        1.12060
H          5.01229        -2.59560        1.17139
H          3.35426        -6.84523       -0.82325
H          1.90938        -4.83598       -0.81948
H          6.48245         4.57898        1.14060
H          5.00769         2.58586        1.18560
H          3.38240         6.83555       -0.83404
H          1.92789         4.83224       -0.83341
H         -1.91881        -4.83655       -0.81891
H         -3.36590        -6.84490       -0.82055
H         -5.01852        -2.59234        1.17236
H         -6.48621        -4.59021        1.12456
H         -1.94383         4.83808       -0.82342
H         -3.41072         6.83456       -0.81427
H         -5.00162         2.57346        1.20966
H         -6.48453         4.56092        1.18060
