81
	Energy:     737.5556803
Zn         0.06332        0.01376       -0.03894
C          4.08368       -0.66220       -0.25826
C          4.08348        0.68646       -0.26723
C          2.78678       -1.10196        0.25963
C          2.78648        1.13275        0.24494
C          2.44150       -2.37950        0.42122
C          5.59842       -4.54135        0.59587
C          5.17920       -5.70307       -0.05361
C          4.72762       -3.45521        0.72932
C          3.89043       -5.78051       -0.57956
C          3.41719       -3.51739        0.21023
C          3.01493       -4.69951       -0.45224
C          2.44242        2.41186        0.39650
C          5.60644        4.55954        0.58356
C          5.19518        5.72385       -0.06599
C          4.73044        3.47744        0.71139
C          3.90915        5.80748       -0.59806
C          3.42263        3.54559        0.18627
C          3.02825        4.72996       -0.47659
C          1.06217       -2.70570        0.77399
C          1.06251        2.74186        0.74502
C          0.67346       -4.04786        1.22604
C          0.67316        4.08652        1.18910
C         -0.66794       -4.09312        1.21918
C         -0.66862        4.13019        1.18577
C         -1.10244       -2.78141        0.76174
C         -1.10272        2.81578        0.73628
C         -2.35050       -2.47858        0.39956
C         -3.07817       -4.80426       -0.29854
C         -3.39997       -3.56036        0.29639
C         -4.02259       -5.82514       -0.38425
C         -4.71020       -3.36444        0.77017
C         -5.30734       -5.62783        0.11432
C         -5.65359       -4.39966        0.68604
C         -2.35175        2.50849        0.38102
C         -3.10450        4.83018       -0.30357
C         -3.40896        3.58222        0.29051
C         -4.05840        5.84368       -0.37234
C         -4.71088        3.37385        0.78162
C         -5.33479        5.63415        0.14323
C         -5.66346        4.40122        0.71481
C         -2.64127       -1.08389        0.07001
C         -2.64008        1.11281        0.05726
C         -3.71940       -0.67361       -0.59682
C         -3.71910        0.69664       -0.60409
N          1.96530        0.01763        0.62847
N          0.03403       -1.92689        0.62065
N          0.03445        1.96169        0.59827
N         -1.87161        0.01659        0.53943
H          5.85152       -6.54638       -0.14433
H         -6.06954        6.42759        0.09526
H          5.87150        6.56441       -0.15162
H         -6.03496       -6.42698        0.05256
H          4.90477       -1.26214       -0.62357
H          4.90433        1.28197       -0.64044
H          1.31165       -4.87517        1.50420
H          1.31078        4.91586        1.46207
H         -1.25362       -4.95922        1.49373
H         -1.25416        4.99696        1.45785
H         -4.48789       -1.30391       -1.02470
H         -4.48844        1.32311       -1.03609
H          6.59599       -4.48707        1.01140
H          5.06730       -2.58232        1.27017
H          3.56416       -6.68334       -1.08028
H          2.02046       -4.78813       -0.87047
H          6.60156        4.50012        1.00423
H          5.06388        2.60298        1.25359
H          3.58913        6.71268       -1.09843
H          2.03590        4.82351       -0.89870
H         -2.09328       -4.98341       -0.71117
H         -3.75332       -6.77125       -0.83853
H         -4.99361       -2.42684        1.22883
H         -6.65401       -4.25355        1.06987
H         -2.12619        5.01827       -0.72769
H         -3.80294        6.79374       -0.82603
H         -4.98003        2.43243        1.24140
H         -6.65699        4.24533        1.11256
O         -1.64733        0.02176        1.87390
H         -2.52707        0.12799        2.32575
O          1.62798        0.02523        1.93688
H          2.46972        0.06484        2.46659
