
     Program PWSCF v.7.5 starts on  1Aug2026 at 23:39:59 

     This program is part of the open-source Quantum ESPRESSO suite
     for quantum simulation of materials; please cite
         "P. Giannozzi et al., J. Phys.:Condens. Matter 21 395502 (2009);
         "P. Giannozzi et al., J. Phys.:Condens. Matter 29 465901 (2017);
         "P. Giannozzi et al., J. Chem. Phys. 152 154105 (2020);
          URL http://www.quantum-espresso.org", 
     in publications or presentations arising from this work. More details at
     http://www.quantum-espresso.org/quote

     Parallel version (MPI), running on     4 processors

     MPI processes distributed on     1 nodes
     0 MiB available memory on the printing compute node when the environment starts

     Reading input from /Users/behnamazizi/Downloads/core level shifts/TWDCOH/input/TWDCOH.scf.in

     Current dimensions of program PWSCF are:
     Max number of different atomic species (ntypx) = 10
     Max number of k-points (npk) =  40000
     Max angular momentum in pseudopotentials (lmaxx) =  4
     file C.pbe-rrkjus.UPF: wavefunction(s)  2S 2P renormalized
     file H.pbe-rrkjus.UPF: wavefunction(s)  1S renormalized
     file O.pbe-rrkjus.UPF: wavefunction(s)  2S renormalized

     IMPORTANT: XC functional enforced from input :
     Exchange-correlation= PBE
                           (   1   4   3   4   0   0   0)
     Any further DFT definition will be discarded
     Please, verify this is what you really want


     gamma-point specific algorithms are used

     R & G space division:  proc/nbgrp/npool/nimage =       4
     Subspace diagonalization in iterative solution of the eigenvalue problem:
     one sub-group per band group will be used
     custom distributed-memory algorithm (size of sub-group:  2*  2 procs)


     Parallelization info
     --------------------
     sticks:   dense  smooth     PW     G-vecs:    dense   smooth      PW
     Min        7986    5331   1333              1074872   585126   73123
     Max        7989    5334   1336              1074881   585128   73126
     Sum       31949   21329   5337              4299501  2340509  292499

     Using Slab Decomposition



     bravais-lattice index     =            1
     lattice parameter (alat)  =      47.2432  a.u.
     unit-cell volume          =  105442.7265 (a.u.)^3
     number of atoms/cell      =           87
     number of atomic types    =            7
     number of electrons       =       282.00
     number of Kohn-Sham states=          169
     kinetic-energy cutoff     =      30.0000  Ry
     charge density cutoff     =     180.0000  Ry
     scf convergence threshold =      1.0E-06
     mixing beta               =       0.2000
     number of iterations used =           20  local-TF  mixing
     Exchange-correlation= PBE
                           (   1   4   3   4   0   0   0)
     Assuming isolated system, Martyna-Tuckerman method


     celldm(1)=  47.243153  celldm(2)=   0.000000  celldm(3)=   0.000000
     celldm(4)=   0.000000  celldm(5)=   0.000000  celldm(6)=   0.000000

     crystal axes: (cart. coord. in units of alat)
               a(1) = (   1.000000   0.000000   0.000000 )  
               a(2) = (   0.000000   1.000000   0.000000 )  
               a(3) = (   0.000000   0.000000   1.000000 )  

     reciprocal axes: (cart. coord. in units 2 pi/alat)
               b(1) = (  1.000000  0.000000  0.000000 )  
               b(2) = (  0.000000  1.000000  0.000000 )  
               b(3) = (  0.000000  0.000000  1.000000 )  


     PseudoPot. # 1 for Zn read from file:
     /Users/behnamazizi/Downloads/core level shifts/pseudopotential/Zn.pbe-van.UPF
     MD5 check sum: e89cebcf7a22e388733959be9607aa2e
     Pseudo is Ultrasoft, Zval = 12.0
     Generated by new atomic code, or converted to UPF format
     Using radial grid of  869 points,  6 beta functions with: 
                l(1) =   0
                l(2) =   0
                l(3) =   1
                l(4) =   1
                l(5) =   2
                l(6) =   2
     Q(r) pseudized with  8 coefficients,  rinner =    0.800   0.800   0.800
                                                       0.800   0.800

     PseudoPot. # 2 for C  read from file:
     /Users/behnamazizi/Downloads/core level shifts/pseudopotential/C.pbe-rrkjus.UPF
     MD5 check sum: c9ac5a99bc85b198593446162950cd17
     Pseudo is Ultrasoft, Zval =  4.0
     Generated by new atomic code, or converted to UPF format
     Using radial grid of  627 points,  4 beta functions with: 
                l(1) =   0
                l(2) =   0
                l(3) =   1
                l(4) =   1
     Q(r) pseudized with 0 coefficients 


     PseudoPot. # 3 for N  read from file:
     /Users/behnamazizi/Downloads/core level shifts/pseudopotential/N.pbe-van_ak.UPF
     MD5 check sum: 090a72b4b4f32b788c2341547a991be6
     Pseudo is Ultrasoft, Zval =  5.0
     Generated by new atomic code, or converted to UPF format
     Using radial grid of  729 points,  4 beta functions with: 
                l(1) =   0
                l(2) =   0
                l(3) =   1
                l(4) =   1
     Q(r) pseudized with  8 coefficients,  rinner =    0.800   0.800   0.800


     PseudoPot. # 4 for H  read from file:
     /Users/behnamazizi/Downloads/core level shifts/pseudopotential/H.pbe-rrkjus.UPF
     MD5 check sum: 2d52a7f45632fd764c17cc6affed14c8
     Pseudo is Ultrasoft, Zval =  1.0
     Generated by new atomic code, or converted to UPF format
     Using radial grid of 1061 points,  2 beta functions with: 
                l(1) =   0
                l(2) =   0
     Q(r) pseudized with 0 coefficients 


     PseudoPot. # 5 for O  read from file:
     /Users/behnamazizi/Downloads/core level shifts/pseudopotential/O.pbe-rrkjus.UPF
     MD5 check sum: fadcf19ee70a498d3030e2e79cf929a4
     Pseudo is Ultrasoft, Zval =  6.0
     Generated by new atomic code, or converted to UPF format
     Using radial grid of 1269 points,  4 beta functions with: 
                l(1) =   0
                l(2) =   0
                l(3) =   1
                l(4) =   1
     Q(r) pseudized with 0 coefficients 


     PseudoPot. # 6 for C  read from file:
     /Users/behnamazizi/Downloads/core level shifts/pseudopotential/C.star1s-pbe-rrkjus.UPF
     MD5 check sum: d6a66a864dce4990f98654a67f8dd415
     Pseudo is Ultrasoft, Zval =  5.0
     Generated by new atomic code, or converted to UPF format
     Using radial grid of 1073 points,  4 beta functions with: 
                l(1) =   0
                l(2) =   0
                l(3) =   1
                l(4) =   1
     Q(r) pseudized with 0 coefficients 


     PseudoPot. # 7 for N  read from file:
     /Users/behnamazizi/Downloads/core level shifts/pseudopotential/N.star1s-pbe-van.UPF
     MD5 check sum: ee94cefccf6368fcf05291e556b07c24
     Pseudo is Ultrasoft, Zval =  6.0
     Generated by new atomic code, or converted to UPF format
     Using radial grid of  729 points,  4 beta functions with: 
                l(1) =   0
                l(2) =   0
                l(3) =   1
                l(4) =   1
     Q(r) pseudized with  8 coefficients,  rinner =    0.800   0.800   0.800


     atomic species   valence    mass     pseudopotential
     Zn               12.00    65.38000     Zn( 1.00)
     C                 4.00    12.01100     C ( 1.00)
     N                 5.00    14.00700     N ( 1.00)
     H                 1.00     1.00800     H ( 1.00)
     O                 6.00    15.99900     O ( 1.00)
     Cs                5.00    12.01100     C ( 1.00)
     Ns                6.00    14.00700     N ( 1.00)

     No symmetry found



   Cartesian axes

     site n.     atom                  positions (alat units)
         1        Zn     tau(   1) = (  -0.0013216  -0.0041588  -0.0055036  )
         2        C      tau(   2) = (   0.1562776  -0.0295320  -0.0241048  )
         3        C      tau(   3) = (   0.1598664   0.0238320  -0.0192200  )
         4        C      tau(   4) = (   0.1045240  -0.0457824  -0.0014564  )
         5        C      tau(   5) = (   0.1100580   0.0406772   0.0056712  )
         6        C      tau(   6) = (   0.0919364  -0.1026788   0.0064032  )
         7        C      tau(   7) = (   0.2282912  -0.1670556   0.0316332  )
         8        C      tau(   8) = (   0.2243468  -0.2151912   0.0029520  )
         9        C      tau(   9) = (   0.1854908  -0.1311436   0.0327420  )
        10        C      tau(  10) = (   0.1767928  -0.2267108  -0.0245756  )
        11        C      tau(  11) = (   0.1375232  -0.1425224   0.0054356  )
        12        C      tau(  12) = (   0.1339292  -0.1908424  -0.0234324  )
        13        C      tau(  13) = (   0.0975704   0.0913824   0.0171924  )
        14        C      tau(  14) = (   0.2275056   0.1724640   0.0193360  )
        15        C      tau(  15) = (   0.2114356   0.2199896  -0.0050948  )
        16        C      tau(  16) = (   0.1909312   0.1307932   0.0265328  )
        17        C      tau(  17) = (   0.1586956   0.2260516  -0.0222940  )
        18        C      tau(  18) = (   0.1374364   0.1361484   0.0092624  )
        19        C      tau(  19) = (   0.1218492   0.1846084  -0.0151452  )
        20        C      tau(  20) = (   0.0413016  -0.1177360   0.0133168  )
        21        C      tau(  21) = (   0.0427388   0.1039516   0.0333120  )
        22        C      tau(  22) = (   0.0252476  -0.1696384   0.0239336  )
        23        C      tau(  23) = (   0.0275668   0.1529272   0.0538144  )
        24        C      tau(  24) = (  -0.0286032  -0.1693284   0.0250296  )
        25        C      tau(  25) = (  -0.0264324   0.1532536   0.0546136  )
        26        C      tau(  26) = (  -0.0444848  -0.1172448   0.0150188  )
        27        C      tau(  27) = (  -0.0427972   0.1044644   0.0345876  )
        28        C      tau(  28) = (  -0.0951828  -0.1016224   0.0100788  )
        29        C      tau(  29) = (  -0.1393668  -0.1895028  -0.0176112  )
        30        C      tau(  30) = (  -0.1411876  -0.1409452   0.0111912  )
        31        C      tau(  31) = (  -0.1825992  -0.2249484  -0.0163912  )
        32        C      tau(  32) = (  -0.1878036  -0.1289588   0.0406612  )
        33        C      tau(  33) = (  -0.2281996  -0.2125992   0.0133204  )
        34        C      tau(  34) = (  -0.2308180  -0.1646532   0.0417540  )
        35        C      tau(  35) = (  -0.0982536   0.0925256   0.0202048  )
        36        C      tau(  36) = (  -0.1223192   0.1858956  -0.0116136  )
        37        C      tau(  37) = (  -0.1377708   0.1377932   0.0133880  )
        38        C      tau(  38) = (  -0.1586792   0.2278896  -0.0177988  )
        39        C      tau(  39) = (  -0.1906804   0.1332328   0.0323160  )
        40        C      tau(  40) = (  -0.2113652   0.2229784   0.0010524  )
        41        C      tau(  41) = (  -0.2269836   0.1752920   0.0262112  )
        42        C      tau(  42) = (  -0.1074472  -0.0446324   0.0024856  )
        43        C      tau(  43) = (  -0.1117288   0.0419224   0.0093276  )
        44        C      tau(  44) = (  -0.1597920  -0.0279116  -0.0183792  )
        45        C      tau(  45) = (  -0.1625684   0.0255340  -0.0137320  )
        46        N      tau(  46) = (   0.0771348  -0.0051036   0.0164356  )
        47        N      tau(  47) = (  -0.0014848  -0.0842828   0.0101312  )
        48        N      tau(  48) = (  -0.0003628   0.0718984   0.0246260  )
        49        N      tau(  49) = (  -0.0789760  -0.0041908   0.0191712  )
        50        H      tau(  50) = (   0.2398560   0.2521752  -0.0106348  )
        51        H      tau(  51) = (  -0.2616052  -0.2401256   0.0141656  )
        52        H      tau(  52) = (   0.1867904  -0.0546772  -0.0416848  )
        53        H      tau(  53) = (   0.1933864   0.0473068  -0.0330744  )
        54        H      tau(  54) = (   0.0492680  -0.2049704   0.0302056  )
        55        H      tau(  55) = (   0.0528524   0.1863396   0.0645640  )
        56        H      tau(  56) = (  -0.0527336  -0.2043948   0.0322704  )
        57        H      tau(  57) = (  -0.0509904   0.1869604   0.0661100  )
        58        H      tau(  58) = (  -0.1911908  -0.0528180  -0.0346992  )
        59        H      tau(  59) = (  -0.1962788   0.0493300  -0.0265400  )
        60        H      tau(  60) = (   0.2645484  -0.1571628   0.0531704  )
        61        H      tau(  61) = (   0.1896356  -0.0944640   0.0554004  )
        62        H      tau(  62) = (   0.1728440  -0.2633764  -0.0472868  )
        63        H      tau(  63) = (   0.0982932  -0.2005204  -0.0460052  )
        64        H      tau(  64) = (   0.2683688   0.1679104   0.0328980  )
        65        H      tau(  65) = (   0.2042392   0.0946588   0.0463148  )
        66        H      tau(  66) = (   0.1462992   0.2629216  -0.0413020  )
        67        H      tau(  67) = (   0.0813444   0.1901544  -0.0293644  )
        68        H      tau(  68) = (  -0.1049252  -0.1996652  -0.0417696  )
        69        H      tau(  69) = (  -0.1807876  -0.2619856  -0.0387388  )
        70        H      tau(  70) = (  -0.1906100  -0.0921380   0.0632948  )
        71        H      tau(  71) = (  -0.2662452  -0.1550824   0.0647260  )
        72        H      tau(  72) = (  -0.0821920   0.1907884  -0.0270956  )
        73        H      tau(  73) = (  -0.1456192   0.2642336  -0.0374180  )
        74        H      tau(  74) = (  -0.2037968   0.0973244   0.0526280  )
        75        H      tau(  75) = (  -0.2672892   0.1705656   0.0413404  )
        76        O      tau(  76) = (  -0.0608312  -0.0099092   0.0685684  )
        77        H      tau(  77) = (  -0.0804660   0.0037644   0.0990748  )
        78        O      tau(  78) = (   0.0606552  -0.0108548   0.0664116  )
        79        H      tau(  79) = (   0.0813488   0.0026924   0.0962672  )
        80        C      tau(  80) = (  -0.2500704   0.2675412  -0.0053844  )
        81        O      tau(  81) = (  -0.3006544   0.2624168   0.0129336  )
        82        H      tau(  82) = (  -0.3263752   0.2910876   0.0090580  )
        83        O      tau(  83) = (  -0.2364244   0.3090984  -0.0272728  )
        84        C      tau(  84) = (   0.2698696  -0.2532904   0.0014356  )
        85        O      tau(  85) = (   0.2656740  -0.2994204  -0.0263568  )
        86        O      tau(  86) = (   0.3114128  -0.2430176   0.0252704  )
        87        H      tau(  87) = (   0.3415176  -0.2673672   0.0246640  )

     number of k points=     1  Marzari-Vanderbilt smearing, width (Ry)=  0.0200
                       cart. coord. in units 2pi/alat
        k(    1) = (   0.0000000   0.0000000   0.0000000), wk =   2.0000000

     Dense  grid:  2149751 G-vectors     FFT dimensions: ( 216, 216, 216)

     Smooth grid:  1170255 G-vectors     FFT dimensions: ( 180, 180, 180)

     Estimated max dynamical RAM per process >       2.92 GB

     Estimated total dynamical RAM >      11.67 GB

     Initial potential from superposition of free atoms

     starting charge     279.1113, renormalised to     282.0000

     negative rho (up, down):  3.898E-02 0.000E+00
     Starting wfcs are  260 randomized atomic wfcs

     total cpu time spent up to now is       45.7 secs

     Self-consistent Calculation

     iteration #  1     ecut=    30.00 Ry     beta= 0.20
     Davidson diagonalization with overlap
     ethr =  1.00E-02,  avg # of iterations =  7.0

     negative rho (up, down):  1.345E-02 0.000E+00

     total cpu time spent up to now is      179.4 secs

     total energy              =    -952.42275784 Ry
     estimated scf accuracy    <     132.11781694 Ry

     iteration #  2     ecut=    30.00 Ry     beta= 0.20
     Davidson diagonalization with overlap
     ethr =  1.00E-02,  avg # of iterations =  2.0

     negative rho (up, down):  8.300E-03 0.000E+00

     total cpu time spent up to now is      280.5 secs

     total energy              =    -958.83867258 Ry
     estimated scf accuracy    <      12.80695702 Ry

     iteration #  3     ecut=    30.00 Ry     beta= 0.20
     Davidson diagonalization with overlap
     ethr =  4.54E-03,  avg # of iterations =  1.0

     negative rho (up, down):  1.377E-02 0.000E+00

     total cpu time spent up to now is      377.5 secs

     total energy              =    -955.02079648 Ry
     estimated scf accuracy    <      10.08898963 Ry

     iteration #  4     ecut=    30.00 Ry     beta= 0.20
     Davidson diagonalization with overlap
     ethr =  3.58E-03,  avg # of iterations =  2.0

     negative rho (up, down):  7.676E-03 0.000E+00

     total cpu time spent up to now is      476.9 secs

     total energy              =    -955.48519495 Ry
     estimated scf accuracy    <       2.43072109 Ry

     iteration #  5     ecut=    30.00 Ry     beta= 0.20
     Davidson diagonalization with overlap
     c_bands:  3 eigenvalues not converged
     ethr =  8.62E-04,  avg # of iterations = 20.0

     negative rho (up, down):  4.127E-03 0.000E+00

     total cpu time spent up to now is      617.8 secs

     total energy              =    -956.26861037 Ry
     estimated scf accuracy    <       1.94912883 Ry

     iteration #  6     ecut=    30.00 Ry     beta= 0.20
     Davidson diagonalization with overlap
     ethr =  6.91E-04,  avg # of iterations =  2.0

     negative rho (up, down):  6.693E-05 0.000E+00

     total cpu time spent up to now is      717.8 secs

     total energy              =    -955.87752555 Ry
     estimated scf accuracy    <       1.79913402 Ry

     iteration #  7     ecut=    30.00 Ry     beta= 0.20
     Davidson diagonalization with overlap
     ethr =  6.38E-04,  avg # of iterations =  2.0

     negative rho (up, down):  2.169E-02 0.000E+00

     total cpu time spent up to now is      820.9 secs

     total energy              =    -955.74830279 Ry
     estimated scf accuracy    <       1.00265997 Ry

     iteration #  8     ecut=    30.00 Ry     beta= 0.20
     Davidson diagonalization with overlap
     ethr =  3.56E-04,  avg # of iterations = 22.0

     negative rho (up, down):  8.267E-04 0.000E+00

     total cpu time spent up to now is     1003.9 secs

     total energy              =    -955.92564624 Ry
     estimated scf accuracy    <       0.77555879 Ry

     iteration #  9     ecut=    30.00 Ry     beta= 0.20
     Davidson diagonalization with overlap
     ethr =  2.75E-04,  avg # of iterations =  1.0

     negative rho (up, down):  3.419E-01 0.000E+00

     total cpu time spent up to now is     1101.8 secs

     total energy              =    -955.69093177 Ry
     estimated scf accuracy    <       0.71748737 Ry

     iteration # 10     ecut=    30.00 Ry     beta= 0.20
     Davidson diagonalization with overlap
     ethr =  2.54E-04,  avg # of iterations =  2.0

     negative rho (up, down):  3.954E-01 0.000E+00

     total cpu time spent up to now is     1205.7 secs

     total energy              =    -955.72914012 Ry
     estimated scf accuracy    <       0.34439750 Ry

     iteration # 11     ecut=    30.00 Ry     beta= 0.20
     Davidson diagonalization with overlap
     c_bands:  4 eigenvalues not converged
     ethr =  1.22E-04,  avg # of iterations = 20.0

     negative rho (up, down):  1.832E-01 0.000E+00

     total cpu time spent up to now is     1347.9 secs

     total energy              =    -955.71297374 Ry
     estimated scf accuracy    <       0.31593777 Ry

     iteration # 12     ecut=    30.00 Ry     beta= 0.20
     Davidson diagonalization with overlap
     ethr =  1.12E-04,  avg # of iterations = 16.0

     negative rho (up, down):  6.054E-01 0.000E+00

     total cpu time spent up to now is     1459.2 secs

     total energy              =    -955.69718133 Ry
     estimated scf accuracy    <       0.21184884 Ry

     iteration # 13     ecut=    30.00 Ry     beta= 0.20
     Davidson diagonalization with overlap
     ethr =  7.51E-05,  avg # of iterations =  4.0

     negative rho (up, down):  4.005E-01 0.000E+00

     total cpu time spent up to now is     1568.0 secs

     total energy              =    -955.68215350 Ry
     estimated scf accuracy    <       0.19280071 Ry

     iteration # 14     ecut=    30.00 Ry     beta= 0.20
     Davidson diagonalization with overlap
     ethr =  6.84E-05,  avg # of iterations =  2.0

     negative rho (up, down):  6.297E-01 0.000E+00

     total cpu time spent up to now is     1672.5 secs

     total energy              =    -955.65476551 Ry
     estimated scf accuracy    <       0.13854768 Ry

     iteration # 15     ecut=    30.00 Ry     beta= 0.20
     Davidson diagonalization with overlap
     ethr =  4.91E-05,  avg # of iterations = 22.0

     negative rho (up, down):  4.411E-01 0.000E+00

     total cpu time spent up to now is     1849.2 secs

     total energy              =    -955.65521041 Ry
     estimated scf accuracy    <       0.09177410 Ry

     iteration # 16     ecut=    30.00 Ry     beta= 0.20
     Davidson diagonalization with overlap
     ethr =  3.25E-05,  avg # of iterations =  2.0

     negative rho (up, down):  6.261E-01 0.000E+00

     total cpu time spent up to now is     1946.1 secs

     total energy              =    -955.63496595 Ry
     estimated scf accuracy    <       0.06442885 Ry

     iteration # 17     ecut=    30.00 Ry     beta= 0.20
     Davidson diagonalization with overlap
     ethr =  2.28E-05,  avg # of iterations = 42.0

     negative rho (up, down):  5.456E-01 0.000E+00

     total cpu time spent up to now is     2209.0 secs

     total energy              =    -955.64090423 Ry
     estimated scf accuracy    <       0.04397407 Ry

     iteration # 18     ecut=    30.00 Ry     beta= 0.20
     Davidson diagonalization with overlap
     ethr =  1.56E-05,  avg # of iterations =  1.0

     negative rho (up, down):  4.058E-01 0.000E+00

     total cpu time spent up to now is     2310.7 secs

     total energy              =    -955.62908214 Ry
     estimated scf accuracy    <       0.02926431 Ry

     iteration # 19     ecut=    30.00 Ry     beta= 0.20
     Davidson diagonalization with overlap
     c_bands:  2 eigenvalues not converged
     ethr =  1.04E-05,  avg # of iterations = 60.0

     negative rho (up, down):  3.999E-01 0.000E+00

     total cpu time spent up to now is     2585.9 secs

     total energy              =    -955.63499283 Ry
     estimated scf accuracy    <       0.01300622 Ry

     iteration # 20     ecut=    30.00 Ry     beta= 0.20
     Davidson diagonalization with overlap
     c_bands:  1 eigenvalues not converged
     ethr =  4.61E-06,  avg # of iterations = 20.0

     negative rho (up, down):  2.133E-01 0.000E+00

     total cpu time spent up to now is     2705.0 secs

     total energy              =    -955.63090022 Ry
     estimated scf accuracy    <       0.01089593 Ry

     iteration # 21     ecut=    30.00 Ry     beta= 0.20
     Davidson diagonalization with overlap
     c_bands:  1 eigenvalues not converged
     ethr =  3.86E-06,  avg # of iterations = 20.0

     negative rho (up, down):  1.934E-01 0.000E+00

     total cpu time spent up to now is     2840.5 secs

     total energy              =    -955.63201718 Ry
     estimated scf accuracy    <       0.00332296 Ry

     iteration # 22     ecut=    30.00 Ry     beta= 0.20
     Davidson diagonalization with overlap
     c_bands:  2 eigenvalues not converged
     ethr =  1.18E-06,  avg # of iterations = 20.0

     negative rho (up, down):  1.867E-01 0.000E+00

     total cpu time spent up to now is     3007.9 secs

     total energy              =    -955.63391980 Ry
     estimated scf accuracy    <       0.00249378 Ry

     iteration # 23     ecut=    30.00 Ry     beta= 0.20
     Davidson diagonalization with overlap
     ethr =  8.84E-07,  avg # of iterations =  2.0

     negative rho (up, down):  1.032E-01 0.000E+00

     total cpu time spent up to now is     3107.6 secs

     total energy              =    -955.63260159 Ry
     estimated scf accuracy    <       0.00228728 Ry

     iteration # 24     ecut=    30.00 Ry     beta= 0.20
     Davidson diagonalization with overlap
     ethr =  8.11E-07,  avg # of iterations = 22.0

     negative rho (up, down):  1.054E-01 0.000E+00

     total cpu time spent up to now is     3308.5 secs

     total energy              =    -955.63321277 Ry
     estimated scf accuracy    <       0.00150316 Ry

     iteration # 25     ecut=    30.00 Ry     beta= 0.20
     Davidson diagonalization with overlap
     ethr =  5.33E-07,  avg # of iterations =  2.0

     negative rho (up, down):  9.347E-02 0.000E+00

     total cpu time spent up to now is     3408.4 secs

     total energy              =    -955.63304250 Ry
     estimated scf accuracy    <       0.00091361 Ry

     iteration # 26     ecut=    30.00 Ry     beta= 0.20
     Davidson diagonalization with overlap
     ethr =  3.24E-07,  avg # of iterations =  5.0

     negative rho (up, down):  7.970E-02 0.000E+00

     total cpu time spent up to now is     3513.2 secs

     total energy              =    -955.63306928 Ry
     estimated scf accuracy    <       0.00038300 Ry

     iteration # 27     ecut=    30.00 Ry     beta= 0.20
     Davidson diagonalization with overlap
     ethr =  1.36E-07,  avg # of iterations =  7.0

     negative rho (up, down):  7.792E-02 0.000E+00

     total cpu time spent up to now is     3630.6 secs

     total energy              =    -955.63315879 Ry
     estimated scf accuracy    <       0.00019547 Ry

     iteration # 28     ecut=    30.00 Ry     beta= 0.20
     Davidson diagonalization with overlap
     ethr =  6.93E-08,  avg # of iterations =  4.0

     negative rho (up, down):  7.859E-02 0.000E+00

     total cpu time spent up to now is     3740.1 secs

     total energy              =    -955.63314636 Ry
     estimated scf accuracy    <       0.00015602 Ry

     iteration # 29     ecut=    30.00 Ry     beta= 0.20
     Davidson diagonalization with overlap
     ethr =  5.53E-08,  avg # of iterations =  7.0

     negative rho (up, down):  7.706E-02 0.000E+00

     total cpu time spent up to now is     3866.1 secs

     total energy              =    -955.63318013 Ry
     estimated scf accuracy    <       0.00011158 Ry

     iteration # 30     ecut=    30.00 Ry     beta= 0.20
     Davidson diagonalization with overlap
     ethr =  3.96E-08,  avg # of iterations =  5.0

     negative rho (up, down):  7.655E-02 0.000E+00

     total cpu time spent up to now is     3968.0 secs

     total energy              =    -955.63318246 Ry
     estimated scf accuracy    <       0.00005578 Ry

     iteration # 31     ecut=    30.00 Ry     beta= 0.20
     Davidson diagonalization with overlap
     ethr =  1.98E-08,  avg # of iterations =  5.0

     negative rho (up, down):  7.724E-02 0.000E+00

     total cpu time spent up to now is     4092.6 secs

     total energy              =    -955.63319192 Ry
     estimated scf accuracy    <       0.00004453 Ry

     iteration # 32     ecut=    30.00 Ry     beta= 0.20
     Davidson diagonalization with overlap
     ethr =  1.58E-08,  avg # of iterations =  2.0

     negative rho (up, down):  7.807E-02 0.000E+00

     total cpu time spent up to now is     4192.0 secs

     total energy              =    -955.63318604 Ry
     estimated scf accuracy    <       0.00002275 Ry

     iteration # 33     ecut=    30.00 Ry     beta= 0.20
     Davidson diagonalization with overlap
     ethr =  8.07E-09,  avg # of iterations =  7.0

     negative rho (up, down):  7.731E-02 0.000E+00

     total cpu time spent up to now is     4304.2 secs

     total energy              =    -955.63318896 Ry
     estimated scf accuracy    <       0.00001528 Ry

     iteration # 34     ecut=    30.00 Ry     beta= 0.20
     Davidson diagonalization with overlap
     ethr =  5.42E-09,  avg # of iterations =  2.0

     negative rho (up, down):  7.751E-02 0.000E+00

     total cpu time spent up to now is     4406.8 secs

     total energy              =    -955.63318547 Ry
     estimated scf accuracy    <       0.00000904 Ry

     iteration # 35     ecut=    30.00 Ry     beta= 0.20
     Davidson diagonalization with overlap
     ethr =  3.21E-09,  avg # of iterations =  5.0

     negative rho (up, down):  7.731E-02 0.000E+00

     total cpu time spent up to now is     4539.1 secs

     total energy              =    -955.63318979 Ry
     estimated scf accuracy    <       0.00000655 Ry

     iteration # 36     ecut=    30.00 Ry     beta= 0.20
     Davidson diagonalization with overlap
     ethr =  2.32E-09,  avg # of iterations =  1.0

     negative rho (up, down):  7.746E-02 0.000E+00

     total cpu time spent up to now is     4639.5 secs

     total energy              =    -955.63318862 Ry
     estimated scf accuracy    <       0.00000485 Ry

     iteration # 37     ecut=    30.00 Ry     beta= 0.20
     Davidson diagonalization with overlap
     ethr =  1.72E-09,  avg # of iterations =  5.0

     negative rho (up, down):  7.741E-02 0.000E+00

     total cpu time spent up to now is     4761.3 secs

     total energy              =    -955.63318940 Ry
     estimated scf accuracy    <       0.00000234 Ry

     iteration # 38     ecut=    30.00 Ry     beta= 0.20
     Davidson diagonalization with overlap
     ethr =  8.29E-10,  avg # of iterations =  5.0

     negative rho (up, down):  7.718E-02 0.000E+00

     total cpu time spent up to now is     4876.4 secs

     total energy              =    -955.63319006 Ry
     estimated scf accuracy    <       0.00000146 Ry

     iteration # 39     ecut=    30.00 Ry     beta= 0.20
     Davidson diagonalization with overlap
     ethr =  5.19E-10,  avg # of iterations =  5.0

     negative rho (up, down):  7.712E-02 0.000E+00

     total cpu time spent up to now is     4987.1 secs

     total energy              =    -955.63319006 Ry
     estimated scf accuracy    <       0.00000142 Ry

     iteration # 40     ecut=    30.00 Ry     beta= 0.20
     Davidson diagonalization with overlap
     ethr =  5.03E-10,  avg # of iterations =  4.0

     negative rho (up, down):  7.758E-02 0.000E+00

     total cpu time spent up to now is     5065.0 secs

     End of self-consistent calculation

          k = 0.0000 0.0000 0.0000 (146250 PWs)   bands (ev):

   -29.4611 -29.4193 -28.7238 -27.2360 -24.8108 -24.1817 -24.0384 -23.8572
   -23.7958 -23.2281 -21.5894 -21.5079 -21.3611 -21.2730 -20.6260 -20.2935
   -20.0773 -19.7074 -19.6251 -19.3782 -19.0593 -18.8857 -18.6716 -18.6282
   -18.5727 -18.5230 -18.4071 -18.3548 -18.1788 -17.7747 -17.6090 -17.1237
   -16.6387 -16.5322 -16.5017 -16.1835 -15.9773 -15.5247 -15.3122 -15.0409
   -14.9232 -14.8627 -14.7626 -14.7236 -14.6370 -14.5952 -14.4326 -14.0384
   -13.9222 -13.7378 -13.7060 -13.4175 -13.1742 -13.1418 -12.9900 -12.8220
   -12.7040 -12.6085 -12.5154 -12.3616 -12.2728 -12.2235 -11.9798 -11.6173
   -11.5644 -11.3835 -11.3150 -11.2852 -11.2562 -11.1598 -11.1235 -11.0405
   -11.0114 -10.9885 -10.9267 -10.9056 -10.8764 -10.8323 -10.7417 -10.6768
   -10.6356 -10.5880 -10.5708 -10.3654 -10.3215 -10.2414 -10.2067 -10.1465
   -10.0906 -10.0142  -9.9492  -9.9023  -9.8471  -9.7559  -9.6214  -9.2903
    -9.1492  -9.1041  -9.0715  -8.9735  -8.9693  -8.8208  -8.7873  -8.7353
    -8.6926  -8.6316  -8.6218  -8.5630  -8.4300  -8.3732  -8.3130  -8.2523
    -8.2286  -8.1578  -8.1539  -8.1058  -7.9572  -7.8798  -7.7248  -7.5804
    -7.3625  -7.1433  -7.0648  -6.8911  -6.8898  -6.4946  -6.4500  -6.4027
    -6.3107  -6.2891  -6.2384  -6.1539  -6.0438  -5.9864  -5.8741  -5.8348
    -5.6914  -5.2942  -4.9975  -4.8432  -3.5017  -3.0512  -2.4316  -2.2512
    -2.1563  -2.0088  -1.5168  -1.4587  -1.3638  -1.3261  -1.2313  -1.1476
    -0.9775  -0.7889  -0.7784  -0.5579  -0.4946  -0.4007  -0.2842  -0.2268
    -0.1751  -0.1184  -0.1092  -0.0019   0.0189   0.0250   0.0624   0.1001
     0.1452

     the Fermi energy is    -3.2823 ev

!    total energy              =    -955.63318921 Ry
     estimated scf accuracy    <       0.00000071 Ry
     smearing contrib. (-TS)   =      -0.00063843 Ry
     internal energy E=F+TS    =    -955.63255078 Ry

     The total energy is F=E-TS. E is the sum of the following terms:
     one-electron contribution =  -17078.27797798 Ry
     hartree contribution      =    8577.80909150 Ry
     xc contribution           =    -263.41977024 Ry
     ewald contribution        =    7808.25610595 Ry

     convergence has been achieved in  40 iterations

     Writing all to output data dir /Users/behnamazizi/Downloads/core level shifts/TWDCOH/output/restart_data/twdcoh_cls.save/ :
     XML data file, charge density, pseudopotentials, collected wavefunctions

     init_run     :     30.38s CPU     45.30s WALL (       1 calls)
     electrons    :   3243.93s CPU   5019.71s WALL (       1 calls)

     Called by init_run:
     wfcinit      :     20.96s CPU     30.69s WALL (       1 calls)
     potinit      :      2.72s CPU      3.86s WALL (       1 calls)
     hinit0       :      1.62s CPU      2.32s WALL (       1 calls)

     Called by electrons:
     c_bands      :   1874.11s CPU   2739.33s WALL (      40 calls)
     sum_band     :    463.34s CPU    874.98s WALL (      40 calls)
     v_of_rho     :     86.92s CPU    125.32s WALL (      41 calls)
     newd         :    147.60s CPU    306.50s WALL (      41 calls)
     mix_rho      :    662.58s CPU    957.52s WALL (      40 calls)

     Called by c_bands:
     init_us_2    :     12.01s CPU     29.35s WALL (      81 calls)
     regterg      :   1855.98s CPU   2702.99s WALL (      47 calls)

     Called by *egterg:
     rdiaghg      :     21.71s CPU     31.89s WALL (     432 calls)
     h_psi        :   1465.35s CPU   2120.74s WALL (     433 calls)
     s_psi        :     93.40s CPU    137.99s WALL (     433 calls)
     g_psi        :      2.03s CPU      3.05s WALL (     385 calls)

     Called by h_psi:
     h_psi:calbec :    128.51s CPU    187.19s WALL (     433 calls)
     vloc_psi     :   1239.95s CPU   1791.07s WALL (     433 calls)
                                        0.00s GPU  (     433 calls)
     add_vuspsi   :     93.95s CPU    137.77s WALL (     433 calls)

     General routines
     calbec       :    163.17s CPU    237.43s WALL (     473 calls)
     fft          :     88.80s CPU    125.65s WALL (     449 calls)
     ffts         :    507.76s CPU    715.42s WALL (    4878 calls)
     fftw         :   1346.02s CPU   1932.66s WALL (   24174 calls)
     interpolate  :     13.30s CPU     18.79s WALL (      41 calls)

     Parallel routines

     PWSCF        :  54m35.40s CPU      1h24m WALL


   This run was terminated on:   1: 4:27   2Aug2026            

=------------------------------------------------------------------------------=
   JOB DONE.
=------------------------------------------------------------------------------=
