
     Program PWSCF v.7.5 starts on  1Aug2026 at  5: 9: 4 

     This program is part of the open-source Quantum ESPRESSO suite
     for quantum simulation of materials; please cite
         "P. Giannozzi et al., J. Phys.:Condens. Matter 21 395502 (2009);
         "P. Giannozzi et al., J. Phys.:Condens. Matter 29 465901 (2017);
         "P. Giannozzi et al., J. Chem. Phys. 152 154105 (2020);
          URL http://www.quantum-espresso.org", 
     in publications or presentations arising from this work. More details at
     http://www.quantum-espresso.org/quote

     Parallel version (MPI), running on     4 processors

     MPI processes distributed on     1 nodes
     0 MiB available memory on the printing compute node when the environment starts

     Reading input from pldc_cooh_allC.scf.in

     Current dimensions of program PWSCF are:
     Max number of different atomic species (ntypx) = 10
     Max number of k-points (npk) =  40000
     Max angular momentum in pseudopotentials (lmaxx) =  4
     file C.pbe-rrkjus.UPF: wavefunction(s)  2S 2P renormalized
     file H.pbe-rrkjus.UPF: wavefunction(s)  1S renormalized
     file O.pbe-rrkjus.UPF: wavefunction(s)  2S renormalized

     IMPORTANT: XC functional enforced from input :
     Exchange-correlation= PBE
                           (   1   4   3   4   0   0   0)
     Any further DFT definition will be discarded
     Please, verify this is what you really want


     gamma-point specific algorithms are used

     R & G space division:  proc/nbgrp/npool/nimage =       4
     Subspace diagonalization in iterative solution of the eigenvalue problem:
     one sub-group per band group will be used
     custom distributed-memory algorithm (size of sub-group:  2*  2 procs)


     Parallelization info
     --------------------
     sticks:   dense  smooth     PW     G-vecs:    dense   smooth      PW
     Min        7986    5331   1333              1074872   585126   73123
     Max        7989    5334   1336              1074881   585128   73126
     Sum       31949   21329   5337              4299501  2340509  292499

     Using Slab Decomposition



     bravais-lattice index     =            1
     lattice parameter (alat)  =      47.2432  a.u.
     unit-cell volume          =  105442.7265 (a.u.)^3
     number of atoms/cell      =           83
     number of atomic types    =            6
     number of electrons       =       268.00
     number of Kohn-Sham states=          161
     kinetic-energy cutoff     =      30.0000  Ry
     charge density cutoff     =     180.0000  Ry
     scf convergence threshold =      1.0E-06
     mixing beta               =       0.2000
     number of iterations used =           20  local-TF  mixing
     Exchange-correlation= PBE
                           (   1   4   3   4   0   0   0)
     Assuming isolated system, Martyna-Tuckerman method


     celldm(1)=  47.243153  celldm(2)=   0.000000  celldm(3)=   0.000000
     celldm(4)=   0.000000  celldm(5)=   0.000000  celldm(6)=   0.000000

     crystal axes: (cart. coord. in units of alat)
               a(1) = (   1.000000   0.000000   0.000000 )  
               a(2) = (   0.000000   1.000000   0.000000 )  
               a(3) = (   0.000000   0.000000   1.000000 )  

     reciprocal axes: (cart. coord. in units 2 pi/alat)
               b(1) = (  1.000000  0.000000  0.000000 )  
               b(2) = (  0.000000  1.000000  0.000000 )  
               b(3) = (  0.000000  0.000000  1.000000 )  


     PseudoPot. # 1 for Zn read from file:
     /Users/behnamazizi/Documents/predoc exam/planar_cls/pseudo/Zn.pbe-van.UPF
     MD5 check sum: e89cebcf7a22e388733959be9607aa2e
     Pseudo is Ultrasoft, Zval = 12.0
     Generated by new atomic code, or converted to UPF format
     Using radial grid of  869 points,  6 beta functions with: 
                l(1) =   0
                l(2) =   0
                l(3) =   1
                l(4) =   1
                l(5) =   2
                l(6) =   2
     Q(r) pseudized with  8 coefficients,  rinner =    0.800   0.800   0.800
                                                       0.800   0.800

     PseudoPot. # 2 for C  read from file:
     /Users/behnamazizi/Documents/predoc exam/planar_cls/pseudo/C.pbe-rrkjus.UPF
     MD5 check sum: c9ac5a99bc85b198593446162950cd17
     Pseudo is Ultrasoft, Zval =  4.0
     Generated by new atomic code, or converted to UPF format
     Using radial grid of  627 points,  4 beta functions with: 
                l(1) =   0
                l(2) =   0
                l(3) =   1
                l(4) =   1
     Q(r) pseudized with 0 coefficients 


     PseudoPot. # 3 for N  read from file:
     /Users/behnamazizi/Documents/predoc exam/planar_cls/pseudo/N.pbe-van_ak.UPF
     MD5 check sum: 090a72b4b4f32b788c2341547a991be6
     Pseudo is Ultrasoft, Zval =  5.0
     Generated by new atomic code, or converted to UPF format
     Using radial grid of  729 points,  4 beta functions with: 
                l(1) =   0
                l(2) =   0
                l(3) =   1
                l(4) =   1
     Q(r) pseudized with  8 coefficients,  rinner =    0.800   0.800   0.800


     PseudoPot. # 4 for H  read from file:
     /Users/behnamazizi/Documents/predoc exam/planar_cls/pseudo/H.pbe-rrkjus.UPF
     MD5 check sum: 2d52a7f45632fd764c17cc6affed14c8
     Pseudo is Ultrasoft, Zval =  1.0
     Generated by new atomic code, or converted to UPF format
     Using radial grid of 1061 points,  2 beta functions with: 
                l(1) =   0
                l(2) =   0
     Q(r) pseudized with 0 coefficients 


     PseudoPot. # 5 for O  read from file:
     /Users/behnamazizi/Documents/predoc exam/planar_cls/pseudo/O.pbe-rrkjus.UPF
     MD5 check sum: fadcf19ee70a498d3030e2e79cf929a4
     Pseudo is Ultrasoft, Zval =  6.0
     Generated by new atomic code, or converted to UPF format
     Using radial grid of 1269 points,  4 beta functions with: 
                l(1) =   0
                l(2) =   0
                l(3) =   1
                l(4) =   1
     Q(r) pseudized with 0 coefficients 


     PseudoPot. # 6 for C  read from file:
     /Users/behnamazizi/Documents/predoc exam/planar_cls/pseudo/C.star1s-pbe-rrkjus.UPF
     MD5 check sum: d6a66a864dce4990f98654a67f8dd415
     Pseudo is Ultrasoft, Zval =  5.0
     Generated by new atomic code, or converted to UPF format
     Using radial grid of 1073 points,  4 beta functions with: 
                l(1) =   0
                l(2) =   0
                l(3) =   1
                l(4) =   1
     Q(r) pseudized with 0 coefficients 


     atomic species   valence    mass     pseudopotential
     Zn               12.00    65.38000     Zn( 1.00)
     C                 4.00    12.01100     C ( 1.00)
     N                 5.00    14.00700     N ( 1.00)
     H                 1.00     1.00800     H ( 1.00)
     O                 6.00    15.99900     O ( 1.00)
     Cs                5.00    12.01100     C ( 1.00)

     No symmetry found



   Cartesian axes

     site n.     atom                  positions (alat units)
         1        Zn     tau(   1) = (  -0.0022488   0.0008660  -0.0014564  )
         2        C      tau(   2) = (   0.1672512  -0.0283696  -0.0062092  )
         3        C      tau(   3) = (   0.1675432   0.0261820  -0.0091744  )
         4        C      tau(   4) = (   0.1138816  -0.0442908   0.0005800  )
         5        C      tau(   5) = (   0.1145668   0.0433032  -0.0030680  )
         6        C      tau(   6) = (   0.0985312  -0.0967076   0.0039384  )
         7        C      tau(   7) = (   0.2235136  -0.1770496   0.0366324  )
         8        C      tau(   8) = (   0.2215532  -0.2171432  -0.0023356  )
         9        C      tau(   9) = (   0.1829176  -0.1388020   0.0394856  )
        10        C      tau(  10) = (   0.1781788  -0.2198148  -0.0375148  )
        11        C      tau(  11) = (   0.1401040  -0.1399980   0.0032056  )
        12        C      tau(  12) = (   0.1373672  -0.1815892  -0.0346648  )
        13        C      tau(  13) = (   0.1001312   0.0963800  -0.0027088  )
        14        C      tau(  14) = (   0.2275704   0.1807348   0.0254912  )
        15        C      tau(  15) = (   0.2231948   0.2255476  -0.0115120  )
        16        C      tau(  16) = (   0.1871232   0.1397756   0.0285324  )
        17        C      tau(  17) = (   0.1757524   0.2254452  -0.0424188  )
        18        C      tau(  18) = (   0.1423148   0.1404992  -0.0052300  )
        19        C      tau(  19) = (   0.1368520   0.1841392  -0.0402356  )
        20        C      tau(  20) = (   0.0418168  -0.1135776   0.0056340  )
        21        C      tau(  21) = (   0.0434232   0.1137576   0.0019936  )
        22        C      tau(  22) = (   0.0258092  -0.1666732   0.0136204  )
        23        C      tau(  23) = (   0.0279716   0.1669028   0.0107968  )
        24        C      tau(  24) = (  -0.0286652  -0.1671224   0.0108804  )
        25        C      tau(  25) = (  -0.0266036   0.1672556   0.0126596  )
        26        C      tau(  26) = (  -0.0449448  -0.1142240   0.0019980  )
        27        C      tau(  27) = (  -0.0433964   0.1144548   0.0051272  )
        28        C      tau(  28) = (  -0.0974288  -0.0996020  -0.0022964  )
        29        C      tau(  29) = (  -0.1362616  -0.1854960  -0.0392348  )
        30        C      tau(  30) = (  -0.1405656  -0.1417588  -0.0041332  )
        31        C      tau(  31) = (  -0.1760540  -0.2258108  -0.0404220  )
        32        C      tau(  32) = (  -0.1854788  -0.1384940   0.0292816  )
        33        C      tau(  33) = (  -0.2225912  -0.2207880  -0.0077772  )
        34        C      tau(  34) = (  -0.2256304  -0.1771420   0.0269068  )
        35        C      tau(  35) = (  -0.0959100   0.0996632   0.0041072  )
        36        C      tau(  36) = (  -0.1369928   0.1819404  -0.0352364  )
        37        C      tau(  37) = (  -0.1388620   0.1413796   0.0035052  )
        38        C      tau(  38) = (  -0.1777580   0.2199712  -0.0384100  )
        39        C      tau(  39) = (  -0.1822912   0.1395128   0.0392768  )
        40        C      tau(  40) = (  -0.2209452   0.2177408  -0.0030308  )
        41        C      tau(  41) = (  -0.2230608   0.1777276   0.0360616  )
        42        C      tau(  42) = (  -0.1144828  -0.0428696  -0.0033292  )
        43        C      tau(  43) = (  -0.1137668   0.0433168   0.0002864  )
        44        C      tau(  44) = (  -0.1675416  -0.0261692  -0.0096448  )
        45        C      tau(  45) = (  -0.1671568   0.0281652  -0.0067296  )
        46        N      tau(  46) = (   0.0806028  -0.0003096   0.0001460  )
        47        N      tau(  47) = (  -0.0012628  -0.0805684   0.0011668  )
        48        N      tau(  48) = (   0.0000080   0.0810104   0.0009772  )
        49        N      tau(  49) = (  -0.0812568  -0.0000844   0.0000172  )
        50        H      tau(  50) = (   0.2535200  -0.2462560  -0.0052584  )
        51        H      tau(  51) = (  -0.2526796   0.2470948  -0.0060204  )
        52        H      tau(  52) = (   0.2025592  -0.0536648  -0.0111764  )
        53        H      tau(  53) = (   0.2030812   0.0504904  -0.0170232  )
        54        H      tau(  54) = (   0.0511548  -0.2015304   0.0219820  )
        55        H      tau(  55) = (   0.0536080   0.2019172   0.0169092  )
        56        H      tau(  56) = (  -0.0537804  -0.2023268   0.0174108  )
        57        H      tau(  57) = (  -0.0514276   0.2022596   0.0208980  )
        58        H      tau(  58) = (  -0.2031276  -0.0504576  -0.0170208  )
        59        H      tau(  59) = (  -0.2023804   0.0537216  -0.0112112  )
        60        H      tau(  60) = (   0.2566732  -0.1751848   0.0643876  )
        61        H      tau(  61) = (   0.1845552  -0.1077728   0.0697012  )
        62        H      tau(  62) = (   0.1765940  -0.2511800  -0.0673364  )
        63        H      tau(  63) = (   0.1042708  -0.1833216  -0.0626568  )
        64        H      tau(  64) = (   0.2603596   0.1763308   0.0530848  )
        65        H      tau(  65) = (   0.1899244   0.1069492   0.0576260  )
        66        H      tau(  66) = (   0.1692032   0.2575196  -0.0699168  )
        67        H      tau(  67) = (   0.1022396   0.1861212  -0.0667716  )
        68        H      tau(  68) = (  -0.1018048  -0.1874768  -0.0659160  )
        69        H      tau(  69) = (  -0.1703756  -0.2585240  -0.0680704  )
        70        H      tau(  70) = (  -0.1894104  -0.1058856   0.0576568  )
        71        H      tau(  71) = (  -0.2596564  -0.1738408   0.0532928  )
        72        H      tau(  72) = (  -0.1040448   0.1830564  -0.0634220  )
        73        H      tau(  73) = (  -0.1760152   0.2510688  -0.0684468  )
        74        H      tau(  74) = (  -0.1842600   0.1085272   0.0695492  )
        75        H      tau(  75) = (  -0.2562808   0.1762228   0.0638112  )
        76        C      tau(  76) = (  -0.2711380  -0.2563824  -0.0088048  )
        77        O      tau(  77) = (  -0.2684252  -0.3053888  -0.0101700  )
        78        O      tau(  78) = (  -0.3197760  -0.2322272  -0.0070384  )
        79        C      tau(  79) = (   0.2642240   0.2737192  -0.0214836  )
        80        O      tau(  80) = (   0.3180372   0.2702212  -0.0134340  )
        81        O      tau(  81) = (   0.2478028   0.3159372  -0.0408212  )
        82        H      tau(  82) = (  -0.3548662  -0.2148003  -0.0057640  )
        83        H      tau(  83) = (   0.3567260   0.2677063  -0.0076468  )

     number of k points=     1  Marzari-Vanderbilt smearing, width (Ry)=  0.0200
                       cart. coord. in units 2pi/alat
        k(    1) = (   0.0000000   0.0000000   0.0000000), wk =   2.0000000

     Dense  grid:  2149751 G-vectors     FFT dimensions: ( 216, 216, 216)

     Smooth grid:  1170255 G-vectors     FFT dimensions: ( 180, 180, 180)

     Estimated max dynamical RAM per process >       2.89 GB

     Estimated total dynamical RAM >      11.54 GB

     Initial potential from superposition of free atoms

     starting charge     265.3037, renormalised to     268.0000

     negative rho (up, down):  3.807E-02 0.000E+00
     Starting wfcs are  250 randomized atomic wfcs

     total cpu time spent up to now is       62.2 secs

     Self-consistent Calculation

     iteration #  1     ecut=    30.00 Ry     beta= 0.20
     Davidson diagonalization with overlap
     ethr =  1.00E-02,  avg # of iterations =  4.0

     negative rho (up, down):  1.367E-02 0.000E+00

     total cpu time spent up to now is      226.2 secs

     total energy              =    -886.91666266 Ry
     estimated scf accuracy    <     132.27645485 Ry

     iteration #  2     ecut=    30.00 Ry     beta= 0.20
     Davidson diagonalization with overlap
     ethr =  1.00E-02,  avg # of iterations =  2.0

     negative rho (up, down):  6.708E-03 0.000E+00

     total cpu time spent up to now is      368.2 secs

     total energy              =    -893.03082145 Ry
     estimated scf accuracy    <      11.79881780 Ry

     iteration #  3     ecut=    30.00 Ry     beta= 0.20
     Davidson diagonalization with overlap
     ethr =  4.40E-03,  avg # of iterations =  1.0

     negative rho (up, down):  8.645E-03 0.000E+00

     total cpu time spent up to now is      497.4 secs

     total energy              =    -890.19619672 Ry
     estimated scf accuracy    <       8.91616210 Ry

     iteration #  4     ecut=    30.00 Ry     beta= 0.20
     Davidson diagonalization with overlap
     ethr =  3.33E-03,  avg # of iterations =  2.0
     Minimization algorithm failed to find Fermi energy: reverting to bisection
     Possible cause: smearing is larger than the electronic band-gap.

     negative rho (up, down):  6.523E-03 0.000E+00

     total cpu time spent up to now is      615.0 secs

     total energy              =    -889.77770919 Ry
     estimated scf accuracy    <       2.96306008 Ry

     iteration #  5     ecut=    30.00 Ry     beta= 0.20
     Davidson diagonalization with overlap
     ethr =  1.11E-03,  avg # of iterations =  8.0
     Minimization algorithm failed to find Fermi energy: reverting to bisection
     Possible cause: smearing is larger than the electronic band-gap.

     negative rho (up, down):  2.944E-03 0.000E+00

     total cpu time spent up to now is      755.2 secs

     total energy              =    -890.53730033 Ry
     estimated scf accuracy    <       1.83886223 Ry

     iteration #  6     ecut=    30.00 Ry     beta= 0.20
     Davidson diagonalization with overlap
     ethr =  6.86E-04,  avg # of iterations =  4.0
     Minimization algorithm failed to find Fermi energy: reverting to bisection
     Possible cause: smearing is larger than the electronic band-gap.

     negative rho (up, down):  5.250E-04 0.000E+00

     total cpu time spent up to now is      871.1 secs

     total energy              =    -890.31557743 Ry
     estimated scf accuracy    <       1.61619995 Ry

     iteration #  7     ecut=    30.00 Ry     beta= 0.20
     Davidson diagonalization with overlap
     ethr =  6.03E-04,  avg # of iterations =  2.0

     negative rho (up, down):  1.303E-02 0.000E+00

     total cpu time spent up to now is      985.0 secs

     total energy              =    -890.09232036 Ry
     estimated scf accuracy    <       1.09393214 Ry

     iteration #  8     ecut=    30.00 Ry     beta= 0.20
     Davidson diagonalization with overlap
     c_bands:  2 eigenvalues not converged
     ethr =  4.08E-04,  avg # of iterations = 20.0

     negative rho (up, down):  5.375E-02 0.000E+00

     total cpu time spent up to now is     1125.2 secs

     total energy              =    -890.08238188 Ry
     estimated scf accuracy    <       0.60185168 Ry

     iteration #  9     ecut=    30.00 Ry     beta= 0.20
     Davidson diagonalization with overlap
     c_bands:  3 eigenvalues not converged
     ethr =  2.25E-04,  avg # of iterations = 20.0

     negative rho (up, down):  2.602E-01 0.000E+00

     total cpu time spent up to now is     1271.5 secs

     total energy              =    -890.06867143 Ry
     estimated scf accuracy    <       0.38023975 Ry

     iteration # 10     ecut=    30.00 Ry     beta= 0.20
     Davidson diagonalization with overlap
     c_bands:  1 eigenvalues not converged
     ethr =  1.42E-04,  avg # of iterations = 20.0

     negative rho (up, down):  1.934E-01 0.000E+00

     total cpu time spent up to now is     1416.3 secs

     total energy              =    -890.08614159 Ry
     estimated scf accuracy    <       0.27501353 Ry

     iteration # 11     ecut=    30.00 Ry     beta= 0.20
     Davidson diagonalization with overlap
     ethr =  1.03E-04,  avg # of iterations =  4.0

     negative rho (up, down):  4.134E-01 0.000E+00

     total cpu time spent up to now is     1534.9 secs

     total energy              =    -890.08905030 Ry
     estimated scf accuracy    <       0.19404305 Ry

     iteration # 12     ecut=    30.00 Ry     beta= 0.20
     Davidson diagonalization with overlap
     c_bands:  3 eigenvalues not converged
     ethr =  7.24E-05,  avg # of iterations = 20.0

     negative rho (up, down):  3.516E-01 0.000E+00

     total cpu time spent up to now is     1673.8 secs

     total energy              =    -890.09475956 Ry
     estimated scf accuracy    <       0.16298413 Ry

     iteration # 13     ecut=    30.00 Ry     beta= 0.20
     Davidson diagonalization with overlap
     c_bands:  2 eigenvalues not converged
     ethr =  6.08E-05,  avg # of iterations = 20.0

     negative rho (up, down):  3.886E-01 0.000E+00

     total cpu time spent up to now is     1802.0 secs

     total energy              =    -890.06888772 Ry
     estimated scf accuracy    <       0.13697606 Ry

     iteration # 14     ecut=    30.00 Ry     beta= 0.20
     Davidson diagonalization with overlap
     ethr =  5.11E-05,  avg # of iterations = 16.0

     negative rho (up, down):  5.924E-01 0.000E+00

     total cpu time spent up to now is     1921.3 secs

     total energy              =    -890.07089704 Ry
     estimated scf accuracy    <       0.09211421 Ry

     iteration # 15     ecut=    30.00 Ry     beta= 0.20
     Davidson diagonalization with overlap
     c_bands:  2 eigenvalues not converged
     ethr =  3.44E-05,  avg # of iterations = 20.0

     negative rho (up, down):  4.876E-01 0.000E+00

     total cpu time spent up to now is     2052.7 secs

     total energy              =    -890.04385918 Ry
     estimated scf accuracy    <       0.07765149 Ry

     iteration # 16     ecut=    30.00 Ry     beta= 0.20
     Davidson diagonalization with overlap
     c_bands:  5 eigenvalues not converged
     ethr =  2.90E-05,  avg # of iterations = 20.0

     negative rho (up, down):  5.902E-01 0.000E+00

     total cpu time spent up to now is     2205.3 secs

     total energy              =    -890.04240040 Ry
     estimated scf accuracy    <       0.03850519 Ry

     iteration # 17     ecut=    30.00 Ry     beta= 0.20
     Davidson diagonalization with overlap
     c_bands:  1 eigenvalues not converged
     ethr =  1.44E-05,  avg # of iterations = 60.0

     negative rho (up, down):  4.077E-01 0.000E+00

     total cpu time spent up to now is     2506.8 secs

     total energy              =    -890.04792844 Ry
     estimated scf accuracy    <       0.02823863 Ry

     iteration # 18     ecut=    30.00 Ry     beta= 0.20
     Davidson diagonalization with overlap
     c_bands:  1 eigenvalues not converged
     ethr =  1.05E-05,  avg # of iterations = 20.0

     negative rho (up, down):  2.812E-01 0.000E+00

     total cpu time spent up to now is     2629.4 secs

     total energy              =    -890.03852468 Ry
     estimated scf accuracy    <       0.02100027 Ry

     iteration # 19     ecut=    30.00 Ry     beta= 0.20
     Davidson diagonalization with overlap
     c_bands:  1 eigenvalues not converged
     ethr =  7.84E-06,  avg # of iterations = 40.0

     negative rho (up, down):  2.425E-01 0.000E+00

     total cpu time spent up to now is     2842.7 secs

     total energy              =    -890.04238135 Ry
     estimated scf accuracy    <       0.00742925 Ry

     iteration # 20     ecut=    30.00 Ry     beta= 0.20
     Davidson diagonalization with overlap
     c_bands:  3 eigenvalues not converged
     ethr =  2.77E-06,  avg # of iterations = 20.0

     negative rho (up, down):  1.755E-01 0.000E+00

     total cpu time spent up to now is     2996.7 secs

     total energy              =    -890.04196859 Ry
     estimated scf accuracy    <       0.00634393 Ry

     iteration # 21     ecut=    30.00 Ry     beta= 0.20
     Davidson diagonalization with overlap
     c_bands:  1 eigenvalues not converged
     ethr =  2.37E-06,  avg # of iterations = 20.0

     negative rho (up, down):  1.405E-01 0.000E+00

     total cpu time spent up to now is     3146.2 secs

     total energy              =    -890.04223921 Ry
     estimated scf accuracy    <       0.00275948 Ry

     iteration # 22     ecut=    30.00 Ry     beta= 0.20
     Davidson diagonalization with overlap
     ethr =  1.03E-06,  avg # of iterations = 22.0

     negative rho (up, down):  1.326E-01 0.000E+00

     total cpu time spent up to now is     3359.0 secs

     total energy              =    -890.04275268 Ry
     estimated scf accuracy    <       0.00155237 Ry

     iteration # 23     ecut=    30.00 Ry     beta= 0.20
     Davidson diagonalization with overlap
     ethr =  5.79E-07,  avg # of iterations =  2.0

     negative rho (up, down):  9.161E-02 0.000E+00

     total cpu time spent up to now is     3472.1 secs

     total energy              =    -890.04241365 Ry
     estimated scf accuracy    <       0.00106375 Ry

     iteration # 24     ecut=    30.00 Ry     beta= 0.20
     Davidson diagonalization with overlap
     c_bands:  3 eigenvalues not converged
     ethr =  3.97E-07,  avg # of iterations = 40.0

     negative rho (up, down):  8.982E-02 0.000E+00

     total cpu time spent up to now is     3700.7 secs

     total energy              =    -890.04273899 Ry
     estimated scf accuracy    <       0.00050475 Ry

     iteration # 25     ecut=    30.00 Ry     beta= 0.20
     Davidson diagonalization with overlap
     c_bands:  3 eigenvalues not converged
     ethr =  1.88E-07,  avg # of iterations = 20.0

     negative rho (up, down):  8.092E-02 0.000E+00

     total cpu time spent up to now is     3835.7 secs

     total energy              =    -890.04255708 Ry
     estimated scf accuracy    <       0.00049678 Ry

     iteration # 26     ecut=    30.00 Ry     beta= 0.20
     Davidson diagonalization with overlap
     c_bands:  3 eigenvalues not converged
     ethr =  1.85E-07,  avg # of iterations = 20.0

     negative rho (up, down):  7.901E-02 0.000E+00

     total cpu time spent up to now is     3998.6 secs

     total energy              =    -890.04258412 Ry
     estimated scf accuracy    <       0.00011613 Ry

     iteration # 27     ecut=    30.00 Ry     beta= 0.20
     Davidson diagonalization with overlap
     c_bands:  2 eigenvalues not converged
     ethr =  4.33E-08,  avg # of iterations = 20.0

     negative rho (up, down):  7.905E-02 0.000E+00

     total cpu time spent up to now is     4196.3 secs

     total energy              =    -890.04266082 Ry
     estimated scf accuracy    <       0.00008549 Ry

     iteration # 28     ecut=    30.00 Ry     beta= 0.20
     Davidson diagonalization with overlap
     c_bands:  2 eigenvalues not converged
     ethr =  3.19E-08,  avg # of iterations = 20.0

     negative rho (up, down):  7.852E-02 0.000E+00

     total cpu time spent up to now is     4329.8 secs

     total energy              =    -890.04264383 Ry
     estimated scf accuracy    <       0.00007530 Ry

     iteration # 29     ecut=    30.00 Ry     beta= 0.20
     Davidson diagonalization with overlap
     ethr =  2.81E-08,  avg # of iterations =  5.0

     negative rho (up, down):  7.868E-02 0.000E+00

     total cpu time spent up to now is     4454.5 secs

     total energy              =    -890.04264899 Ry
     estimated scf accuracy    <       0.00003629 Ry

     iteration # 30     ecut=    30.00 Ry     beta= 0.20
     Davidson diagonalization with overlap
     ethr =  1.35E-08,  avg # of iterations =  5.0

     negative rho (up, down):  7.905E-02 0.000E+00

     total cpu time spent up to now is     4585.5 secs

     total energy              =    -890.04264978 Ry
     estimated scf accuracy    <       0.00002601 Ry

     iteration # 31     ecut=    30.00 Ry     beta= 0.20
     Davidson diagonalization with overlap
     ethr =  9.71E-09,  avg # of iterations =  4.0

     negative rho (up, down):  7.935E-02 0.000E+00

     total cpu time spent up to now is     4705.5 secs

     total energy              =    -890.04264627 Ry
     estimated scf accuracy    <       0.00001261 Ry

     iteration # 32     ecut=    30.00 Ry     beta= 0.20
     Davidson diagonalization with overlap
     ethr =  4.71E-09,  avg # of iterations =  9.0

     negative rho (up, down):  7.890E-02 0.000E+00

     total cpu time spent up to now is     4875.6 secs

     total energy              =    -890.04265618 Ry
     estimated scf accuracy    <       0.00002174 Ry

     iteration # 33     ecut=    30.00 Ry     beta= 0.20
     Davidson diagonalization with overlap
     ethr =  4.71E-09,  avg # of iterations =  1.0

     negative rho (up, down):  7.869E-02 0.000E+00

     total cpu time spent up to now is     4990.6 secs

     total energy              =    -890.04264970 Ry
     estimated scf accuracy    <       0.00001883 Ry

     iteration # 34     ecut=    30.00 Ry     beta= 0.20
     Davidson diagonalization with overlap
     ethr =  4.71E-09,  avg # of iterations =  6.0

     negative rho (up, down):  7.864E-02 0.000E+00

     total cpu time spent up to now is     5114.2 secs

     total energy              =    -890.04265048 Ry
     estimated scf accuracy    <       0.00000465 Ry

     iteration # 35     ecut=    30.00 Ry     beta= 0.20
     Davidson diagonalization with overlap
     ethr =  1.73E-09,  avg # of iterations =  6.0

     negative rho (up, down):  7.886E-02 0.000E+00

     total cpu time spent up to now is     5275.8 secs

     total energy              =    -890.04265161 Ry
     estimated scf accuracy    <       0.00000256 Ry

     iteration # 36     ecut=    30.00 Ry     beta= 0.20
     Davidson diagonalization with overlap
     ethr =  9.57E-10,  avg # of iterations =  4.0

     negative rho (up, down):  7.915E-02 0.000E+00

     total cpu time spent up to now is     5405.7 secs

     total energy              =    -890.04265086 Ry
     estimated scf accuracy    <       0.00000257 Ry

     iteration # 37     ecut=    30.00 Ry     beta= 0.20
     Davidson diagonalization with overlap
     ethr =  9.57E-10,  avg # of iterations =  6.0

     negative rho (up, down):  7.933E-02 0.000E+00

     total cpu time spent up to now is     5546.6 secs

     total energy              =    -890.04265084 Ry
     estimated scf accuracy    <       0.00000242 Ry

     iteration # 38     ecut=    30.00 Ry     beta= 0.20
     Davidson diagonalization with overlap
     ethr =  9.04E-10,  avg # of iterations =  1.0

     negative rho (up, down):  7.946E-02 0.000E+00

     total cpu time spent up to now is     5664.8 secs

     total energy              =    -890.04265059 Ry
     estimated scf accuracy    <       0.00000155 Ry

     iteration # 39     ecut=    30.00 Ry     beta= 0.20
     Davidson diagonalization with overlap
     ethr =  5.79E-10,  avg # of iterations =  2.0

     negative rho (up, down):  7.964E-02 0.000E+00

     total cpu time spent up to now is     5786.5 secs

     total energy              =    -890.04265008 Ry
     estimated scf accuracy    <       0.00000125 Ry

     iteration # 40     ecut=    30.00 Ry     beta= 0.20
     Davidson diagonalization with overlap
     ethr =  4.68E-10,  avg # of iterations =  7.0

     negative rho (up, down):  7.918E-02 0.000E+00

     total cpu time spent up to now is     5896.0 secs

     End of self-consistent calculation

          k = 0.0000 0.0000 0.0000 (146250 PWs)   bands (ev):

   -26.7769 -26.6953 -24.7495 -24.6047 -24.3855 -24.1383 -24.0887 -23.8257
   -21.6523 -21.4778 -21.4051 -21.3316 -20.4133 -20.0677 -19.9619 -19.5586
   -19.1292 -19.1081 -19.0431 -18.9341 -18.6762 -18.5819 -18.4971 -18.4420
   -18.4239 -18.3659 -18.1141 -17.7728 -17.6132 -16.9336 -16.7063 -16.2973
   -16.2610 -15.4096 -15.2218 -15.1731 -15.0372 -14.9681 -14.7943 -14.7473
   -14.6839 -14.6363 -14.1240 -13.9149 -13.8527 -13.6049 -13.5560 -13.3895
   -13.3408 -13.1807 -13.0254 -12.8703 -12.7703 -12.5728 -12.5415 -12.3650
   -11.9840 -11.5860 -11.5167 -11.2719 -11.2204 -11.1837 -11.0249 -10.9969
   -10.9290 -10.8757 -10.8441 -10.6304 -10.5803 -10.5541 -10.5348 -10.5200
   -10.5047 -10.4641 -10.4286 -10.3897 -10.2654 -10.2333 -10.2129 -10.1935
   -10.1017 -10.0640 -10.0445 -10.0081  -9.9692  -9.9288  -9.7966  -9.7660
    -9.7078  -9.6632  -9.4909  -9.4341  -9.2000  -9.1744  -9.0574  -9.0497
    -8.9339  -8.9045  -8.8335  -8.7580  -8.6863  -8.6185  -8.4872  -8.3530
    -8.3404  -8.2997  -8.2667  -8.1718  -7.9236  -7.8746  -7.8454  -7.4517
    -7.3295  -7.3126  -7.2439  -7.1543  -7.1524  -6.7306  -6.5289  -6.4744
    -6.3984  -6.3879  -6.3411  -6.3161  -6.2826  -6.1414  -6.0134  -5.9761
    -5.9508  -5.9186  -5.8751  -5.3251  -5.2441  -4.7747  -3.1426  -3.0501
    -2.2743  -2.0149  -1.7272  -1.5141  -1.5094  -1.3065  -1.2575  -1.2406
    -1.1952  -0.9521  -0.9019  -0.6146  -0.4790  -0.4186  -0.3557  -0.2877
    -0.2757  -0.2037  -0.1262  -0.0464  -0.0276  -0.0001   0.0078   0.0218
     0.0857

     the Fermi energy is    -3.7806 ev

     WARNING: integrated charge=   268.00020225, expected=   268.00000000

!    total energy              =    -890.04265055 Ry
     estimated scf accuracy    <       0.00000056 Ry
     smearing contrib. (-TS)   =       0.00000305 Ry
     internal energy E=F+TS    =    -890.04265360 Ry

     The total energy is F=E-TS. E is the sum of the following terms:
     one-electron contribution =  -15067.57247998 Ry
     hartree contribution      =    7570.94372517 Ry
     xc contribution           =    -246.92958494 Ry
     ewald contribution        =    6853.51568615 Ry

     convergence has been achieved in  40 iterations

     Writing all to output data dir /Users/behnamazizi/Documents/predoc exam/planar_cls/tmp_pldc_cooh_allC/pldc_cooh_allC.save/ :
     XML data file, charge density, pseudopotentials, collected wavefunctions

     init_run     :     30.25s CPU     61.92s WALL (       1 calls)
     electrons    :   3080.80s CPU   5834.32s WALL (       1 calls)

     Called by init_run:
     wfcinit      :     20.68s CPU     38.81s WALL (       1 calls)
     potinit      :      2.83s CPU      5.45s WALL (       1 calls)
     hinit0       :      1.70s CPU      2.98s WALL (       1 calls)

     Called by electrons:
     c_bands      :   1734.01s CPU   2998.64s WALL (      40 calls)
     sum_band     :    429.72s CPU   1042.80s WALL (      40 calls)
     v_of_rho     :     89.55s CPU    159.62s WALL (      41 calls)
     newd         :    148.03s CPU    389.85s WALL (      41 calls)
     mix_rho      :    669.92s CPU   1225.92s WALL (      40 calls)

     Called by c_bands:
     init_us_2    :     10.96s CPU     37.02s WALL (      81 calls)
     regterg      :   1716.18s CPU   2953.55s WALL (      45 calls)

     Called by *egterg:
     rdiaghg      :     27.98s CPU     48.51s WALL (     588 calls)
     h_psi        :   1347.66s CPU   2311.91s WALL (     589 calls)
     s_psi        :     84.99s CPU    145.63s WALL (     589 calls)
     g_psi        :      1.99s CPU      3.92s WALL (     543 calls)

     Called by h_psi:
     h_psi:calbec :    116.57s CPU    196.99s WALL (     589 calls)
     vloc_psi     :   1143.63s CPU   1967.92s WALL (     589 calls)
                                        0.00s GPU  (     589 calls)
     add_vuspsi   :     84.89s CPU    141.55s WALL (     589 calls)

     General routines
     calbec       :    145.00s CPU    243.97s WALL (     629 calls)
     fft          :     88.72s CPU    153.99s WALL (     449 calls)
     ffts         :    498.58s CPU    877.01s WALL (    4878 calls)
     fftw         :   1244.53s CPU   2133.99s WALL (   22934 calls)
     interpolate  :     13.50s CPU     23.96s WALL (      41 calls)

     Parallel routines

     PWSCF        :  51m52.29s CPU      1h38m WALL


   This run was terminated on:   6:47:24   1Aug2026            

=------------------------------------------------------------------------------=
   JOB DONE.
=------------------------------------------------------------------------------=
