
     Program PWSCF v.7.5 starts on  2Aug2026 at 17:40:55 

     This program is part of the open-source Quantum ESPRESSO suite
     for quantum simulation of materials; please cite
         "P. Giannozzi et al., J. Phys.:Condens. Matter 21 395502 (2009);
         "P. Giannozzi et al., J. Phys.:Condens. Matter 29 465901 (2017);
         "P. Giannozzi et al., J. Chem. Phys. 152 154105 (2020);
          URL http://www.quantum-espresso.org", 
     in publications or presentations arising from this work. More details at
     http://www.quantum-espresso.org/quote

     Parallel version (MPI), running on     4 processors

     MPI processes distributed on     1 nodes
     0 MiB available memory on the printing compute node when the environment starts

     Reading input from /Users/behnamazizi/Downloads/core level shifts/planarCOOH/input/pldc_cooh_N.scf.in

     Current dimensions of program PWSCF are:
     Max number of different atomic species (ntypx) = 10
     Max number of k-points (npk) =  40000
     Max angular momentum in pseudopotentials (lmaxx) =  4
     file C.pbe-rrkjus.UPF: wavefunction(s)  2S 2P renormalized
     file H.pbe-rrkjus.UPF: wavefunction(s)  1S renormalized
     file O.pbe-rrkjus.UPF: wavefunction(s)  2S renormalized

     IMPORTANT: XC functional enforced from input :
     Exchange-correlation= PBE
                           (   1   4   3   4   0   0   0)
     Any further DFT definition will be discarded
     Please, verify this is what you really want


     gamma-point specific algorithms are used

     R & G space division:  proc/nbgrp/npool/nimage =       4
     Subspace diagonalization in iterative solution of the eigenvalue problem:
     one sub-group per band group will be used
     custom distributed-memory algorithm (size of sub-group:  2*  2 procs)


     Parallelization info
     --------------------
     sticks:   dense  smooth     PW     G-vecs:    dense   smooth      PW
     Min        7986    5331   1333              1074872   585126   73123
     Max        7989    5334   1336              1074881   585128   73126
     Sum       31949   21329   5337              4299501  2340509  292499

     Using Slab Decomposition



     bravais-lattice index     =            1
     lattice parameter (alat)  =      47.2432  a.u.
     unit-cell volume          =  105442.7265 (a.u.)^3
     number of atoms/cell      =           83
     number of atomic types    =            7
     number of electrons       =       268.00
     number of Kohn-Sham states=          161
     kinetic-energy cutoff     =      30.0000  Ry
     charge density cutoff     =     180.0000  Ry
     scf convergence threshold =      1.0E-06
     mixing beta               =       0.2000
     number of iterations used =           20  local-TF  mixing
     Exchange-correlation= PBE
                           (   1   4   3   4   0   0   0)
     Assuming isolated system, Martyna-Tuckerman method


     celldm(1)=  47.243153  celldm(2)=   0.000000  celldm(3)=   0.000000
     celldm(4)=   0.000000  celldm(5)=   0.000000  celldm(6)=   0.000000

     crystal axes: (cart. coord. in units of alat)
               a(1) = (   1.000000   0.000000   0.000000 )  
               a(2) = (   0.000000   1.000000   0.000000 )  
               a(3) = (   0.000000   0.000000   1.000000 )  

     reciprocal axes: (cart. coord. in units 2 pi/alat)
               b(1) = (  1.000000  0.000000  0.000000 )  
               b(2) = (  0.000000  1.000000  0.000000 )  
               b(3) = (  0.000000  0.000000  1.000000 )  


     PseudoPot. # 1 for Zn read from file:
     /Users/behnamazizi/Downloads/core level shifts/pseudopotential/Zn.pbe-van.UPF
     MD5 check sum: e89cebcf7a22e388733959be9607aa2e
     Pseudo is Ultrasoft, Zval = 12.0
     Generated by new atomic code, or converted to UPF format
     Using radial grid of  869 points,  6 beta functions with: 
                l(1) =   0
                l(2) =   0
                l(3) =   1
                l(4) =   1
                l(5) =   2
                l(6) =   2
     Q(r) pseudized with  8 coefficients,  rinner =    0.800   0.800   0.800
                                                       0.800   0.800

     PseudoPot. # 2 for C  read from file:
     /Users/behnamazizi/Downloads/core level shifts/pseudopotential/C.pbe-rrkjus.UPF
     MD5 check sum: c9ac5a99bc85b198593446162950cd17
     Pseudo is Ultrasoft, Zval =  4.0
     Generated by new atomic code, or converted to UPF format
     Using radial grid of  627 points,  4 beta functions with: 
                l(1) =   0
                l(2) =   0
                l(3) =   1
                l(4) =   1
     Q(r) pseudized with 0 coefficients 


     PseudoPot. # 3 for N  read from file:
     /Users/behnamazizi/Downloads/core level shifts/pseudopotential/N.pbe-van_ak.UPF
     MD5 check sum: 090a72b4b4f32b788c2341547a991be6
     Pseudo is Ultrasoft, Zval =  5.0
     Generated by new atomic code, or converted to UPF format
     Using radial grid of  729 points,  4 beta functions with: 
                l(1) =   0
                l(2) =   0
                l(3) =   1
                l(4) =   1
     Q(r) pseudized with  8 coefficients,  rinner =    0.800   0.800   0.800


     PseudoPot. # 4 for H  read from file:
     /Users/behnamazizi/Downloads/core level shifts/pseudopotential/H.pbe-rrkjus.UPF
     MD5 check sum: 2d52a7f45632fd764c17cc6affed14c8
     Pseudo is Ultrasoft, Zval =  1.0
     Generated by new atomic code, or converted to UPF format
     Using radial grid of 1061 points,  2 beta functions with: 
                l(1) =   0
                l(2) =   0
     Q(r) pseudized with 0 coefficients 


     PseudoPot. # 5 for O  read from file:
     /Users/behnamazizi/Downloads/core level shifts/pseudopotential/O.pbe-rrkjus.UPF
     MD5 check sum: fadcf19ee70a498d3030e2e79cf929a4
     Pseudo is Ultrasoft, Zval =  6.0
     Generated by new atomic code, or converted to UPF format
     Using radial grid of 1269 points,  4 beta functions with: 
                l(1) =   0
                l(2) =   0
                l(3) =   1
                l(4) =   1
     Q(r) pseudized with 0 coefficients 


     PseudoPot. # 6 for C  read from file:
     /Users/behnamazizi/Downloads/core level shifts/pseudopotential/C.star1s-pbe-rrkjus.UPF
     MD5 check sum: d6a66a864dce4990f98654a67f8dd415
     Pseudo is Ultrasoft, Zval =  5.0
     Generated by new atomic code, or converted to UPF format
     Using radial grid of 1073 points,  4 beta functions with: 
                l(1) =   0
                l(2) =   0
                l(3) =   1
                l(4) =   1
     Q(r) pseudized with 0 coefficients 


     PseudoPot. # 7 for N  read from file:
     /Users/behnamazizi/Downloads/core level shifts/pseudopotential/N.star1s-pbe-van.UPF
     MD5 check sum: ee94cefccf6368fcf05291e556b07c24
     Pseudo is Ultrasoft, Zval =  6.0
     Generated by new atomic code, or converted to UPF format
     Using radial grid of  729 points,  4 beta functions with: 
                l(1) =   0
                l(2) =   0
                l(3) =   1
                l(4) =   1
     Q(r) pseudized with  8 coefficients,  rinner =    0.800   0.800   0.800


     atomic species   valence    mass     pseudopotential
     Zn               12.00    65.38000     Zn( 1.00)
     C                 4.00    12.01100     C ( 1.00)
     N                 5.00    14.00700     N ( 1.00)
     H                 1.00     1.00800     H ( 1.00)
     O                 6.00    15.99900     O ( 1.00)
     Cs                5.00    12.01100     C ( 1.00)
     Ns                6.00    14.00700     N ( 1.00)

     No symmetry found



   Cartesian axes

     site n.     atom                  positions (alat units)
         1        Zn     tau(   1) = (  -0.0022488   0.0008660  -0.0014564  )
         2        C      tau(   2) = (   0.1672512  -0.0283696  -0.0062092  )
         3        C      tau(   3) = (   0.1675432   0.0261820  -0.0091744  )
         4        C      tau(   4) = (   0.1138816  -0.0442908   0.0005800  )
         5        C      tau(   5) = (   0.1145668   0.0433032  -0.0030680  )
         6        C      tau(   6) = (   0.0985312  -0.0967076   0.0039384  )
         7        C      tau(   7) = (   0.2235136  -0.1770496   0.0366324  )
         8        C      tau(   8) = (   0.2215532  -0.2171432  -0.0023356  )
         9        C      tau(   9) = (   0.1829176  -0.1388020   0.0394856  )
        10        C      tau(  10) = (   0.1781788  -0.2198148  -0.0375148  )
        11        C      tau(  11) = (   0.1401040  -0.1399980   0.0032056  )
        12        C      tau(  12) = (   0.1373672  -0.1815892  -0.0346648  )
        13        C      tau(  13) = (   0.1001312   0.0963800  -0.0027088  )
        14        C      tau(  14) = (   0.2275704   0.1807348   0.0254912  )
        15        C      tau(  15) = (   0.2231948   0.2255476  -0.0115120  )
        16        C      tau(  16) = (   0.1871232   0.1397756   0.0285324  )
        17        C      tau(  17) = (   0.1757524   0.2254452  -0.0424188  )
        18        C      tau(  18) = (   0.1423148   0.1404992  -0.0052300  )
        19        C      tau(  19) = (   0.1368520   0.1841392  -0.0402356  )
        20        C      tau(  20) = (   0.0418168  -0.1135776   0.0056340  )
        21        C      tau(  21) = (   0.0434232   0.1137576   0.0019936  )
        22        C      tau(  22) = (   0.0258092  -0.1666732   0.0136204  )
        23        C      tau(  23) = (   0.0279716   0.1669028   0.0107968  )
        24        C      tau(  24) = (  -0.0286652  -0.1671224   0.0108804  )
        25        C      tau(  25) = (  -0.0266036   0.1672556   0.0126596  )
        26        C      tau(  26) = (  -0.0449448  -0.1142240   0.0019980  )
        27        C      tau(  27) = (  -0.0433964   0.1144548   0.0051272  )
        28        C      tau(  28) = (  -0.0974288  -0.0996020  -0.0022964  )
        29        C      tau(  29) = (  -0.1362616  -0.1854960  -0.0392348  )
        30        C      tau(  30) = (  -0.1405656  -0.1417588  -0.0041332  )
        31        C      tau(  31) = (  -0.1760540  -0.2258108  -0.0404220  )
        32        C      tau(  32) = (  -0.1854788  -0.1384940   0.0292816  )
        33        C      tau(  33) = (  -0.2225912  -0.2207880  -0.0077772  )
        34        C      tau(  34) = (  -0.2256304  -0.1771420   0.0269068  )
        35        C      tau(  35) = (  -0.0959100   0.0996632   0.0041072  )
        36        C      tau(  36) = (  -0.1369928   0.1819404  -0.0352364  )
        37        C      tau(  37) = (  -0.1388620   0.1413796   0.0035052  )
        38        C      tau(  38) = (  -0.1777580   0.2199712  -0.0384100  )
        39        C      tau(  39) = (  -0.1822912   0.1395128   0.0392768  )
        40        C      tau(  40) = (  -0.2209452   0.2177408  -0.0030308  )
        41        C      tau(  41) = (  -0.2230608   0.1777276   0.0360616  )
        42        C      tau(  42) = (  -0.1144828  -0.0428696  -0.0033292  )
        43        C      tau(  43) = (  -0.1137668   0.0433168   0.0002864  )
        44        C      tau(  44) = (  -0.1675416  -0.0261692  -0.0096448  )
        45        C      tau(  45) = (  -0.1671568   0.0281652  -0.0067296  )
        46        N      tau(  46) = (   0.0806028  -0.0003096   0.0001460  )
        47        N      tau(  47) = (  -0.0012628  -0.0805684   0.0011668  )
        48        N      tau(  48) = (   0.0000080   0.0810104   0.0009772  )
        49        N      tau(  49) = (  -0.0812568  -0.0000844   0.0000172  )
        50        H      tau(  50) = (   0.2535200  -0.2462560  -0.0052584  )
        51        H      tau(  51) = (  -0.2526796   0.2470948  -0.0060204  )
        52        H      tau(  52) = (   0.2025592  -0.0536648  -0.0111764  )
        53        H      tau(  53) = (   0.2030812   0.0504904  -0.0170232  )
        54        H      tau(  54) = (   0.0511548  -0.2015304   0.0219820  )
        55        H      tau(  55) = (   0.0536080   0.2019172   0.0169092  )
        56        H      tau(  56) = (  -0.0537804  -0.2023268   0.0174108  )
        57        H      tau(  57) = (  -0.0514276   0.2022596   0.0208980  )
        58        H      tau(  58) = (  -0.2031276  -0.0504576  -0.0170208  )
        59        H      tau(  59) = (  -0.2023804   0.0537216  -0.0112112  )
        60        H      tau(  60) = (   0.2566732  -0.1751848   0.0643876  )
        61        H      tau(  61) = (   0.1845552  -0.1077728   0.0697012  )
        62        H      tau(  62) = (   0.1765940  -0.2511800  -0.0673364  )
        63        H      tau(  63) = (   0.1042708  -0.1833216  -0.0626568  )
        64        H      tau(  64) = (   0.2603596   0.1763308   0.0530848  )
        65        H      tau(  65) = (   0.1899244   0.1069492   0.0576260  )
        66        H      tau(  66) = (   0.1692032   0.2575196  -0.0699168  )
        67        H      tau(  67) = (   0.1022396   0.1861212  -0.0667716  )
        68        H      tau(  68) = (  -0.1018048  -0.1874768  -0.0659160  )
        69        H      tau(  69) = (  -0.1703756  -0.2585240  -0.0680704  )
        70        H      tau(  70) = (  -0.1894104  -0.1058856   0.0576568  )
        71        H      tau(  71) = (  -0.2596564  -0.1738408   0.0532928  )
        72        H      tau(  72) = (  -0.1040448   0.1830564  -0.0634220  )
        73        H      tau(  73) = (  -0.1760152   0.2510688  -0.0684468  )
        74        H      tau(  74) = (  -0.1842600   0.1085272   0.0695492  )
        75        H      tau(  75) = (  -0.2562808   0.1762228   0.0638112  )
        76        C      tau(  76) = (  -0.2711380  -0.2563824  -0.0088048  )
        77        O      tau(  77) = (  -0.2684252  -0.3053888  -0.0101700  )
        78        O      tau(  78) = (  -0.3197760  -0.2322272  -0.0070384  )
        79        C      tau(  79) = (   0.2642240   0.2737192  -0.0214836  )
        80        O      tau(  80) = (   0.3180372   0.2702212  -0.0134340  )
        81        O      tau(  81) = (   0.2478028   0.3159372  -0.0408212  )
        82        H      tau(  82) = (  -0.3548662  -0.2148003  -0.0057640  )
        83        H      tau(  83) = (   0.3567260   0.2677063  -0.0076468  )

     number of k points=     1  Marzari-Vanderbilt smearing, width (Ry)=  0.0200
                       cart. coord. in units 2pi/alat
        k(    1) = (   0.0000000   0.0000000   0.0000000), wk =   2.0000000

     Dense  grid:  2149751 G-vectors     FFT dimensions: ( 216, 216, 216)

     Smooth grid:  1170255 G-vectors     FFT dimensions: ( 180, 180, 180)

     Estimated max dynamical RAM per process >       2.90 GB

     Estimated total dynamical RAM >      11.61 GB

     The initial density is read from file :
     /Users/behnamazizi/Downloads/core level shifts/planarCOOH/output/restart_data/pldc_cooh_N.save/charge-density


     starting charge     268.0002, renormalised to     268.0000

     negative rho (up, down):  7.918E-02 0.000E+00
     Starting wfcs from file

     total cpu time spent up to now is        7.1 secs

     Self-consistent Calculation

     iteration #  1     ecut=    30.00 Ry     beta= 0.20
     Davidson diagonalization with overlap
     ethr =  1.00E-05,  avg # of iterations =  2.0

     Threshold (ethr) on eigenvalues was too large:
     Diagonalizing with lowered threshold

     Davidson diagonalization with overlap
     ethr =  3.47E-10,  avg # of iterations =  6.0

     negative rho (up, down):  7.918E-02 0.000E+00

     total cpu time spent up to now is       53.7 secs

     total energy              =    -890.04265124 Ry
     estimated scf accuracy    <       0.00000146 Ry

     iteration #  2     ecut=    30.00 Ry     beta= 0.20
     Davidson diagonalization with overlap
     ethr =  5.46E-10,  avg # of iterations =  1.0

     negative rho (up, down):  7.918E-02 0.000E+00

     total cpu time spent up to now is       80.4 secs

     total energy              =    -890.04265092 Ry
     estimated scf accuracy    <       0.00000105 Ry

     iteration #  3     ecut=    30.00 Ry     beta= 0.20
     Davidson diagonalization with overlap
     ethr =  3.92E-10,  avg # of iterations =  5.0

     negative rho (up, down):  7.918E-02 0.000E+00

     total cpu time spent up to now is       99.7 secs

     End of self-consistent calculation

          k = 0.0000 0.0000 0.0000 (146250 PWs)   bands (ev):

   -26.7806 -26.6919 -24.7531 -24.6013 -24.3872 -24.1395 -24.0907 -23.8270
   -21.6553 -21.4791 -21.4063 -21.3308 -20.4149 -20.0689 -19.9636 -19.5593
   -19.1314 -19.1097 -19.0451 -18.9358 -18.6792 -18.5845 -18.4989 -18.4422
   -18.4248 -18.3642 -18.1158 -17.7745 -17.6145 -16.9363 -16.7041 -16.2988
   -16.2627 -15.4108 -15.2237 -15.1735 -15.0376 -14.9697 -14.7968 -14.7489
   -14.6842 -14.6378 -14.1256 -13.9167 -13.8545 -13.6060 -13.5578 -13.3920
   -13.3424 -13.1788 -13.0274 -12.8714 -12.7720 -12.5741 -12.5432 -12.3666
   -11.9858 -11.5876 -11.5190 -11.2704 -11.2213 -11.1857 -11.0267 -10.9973
   -10.9311 -10.8776 -10.8437 -10.6322 -10.5818 -10.5562 -10.5360 -10.5210
   -10.5064 -10.4654 -10.4260 -10.3922 -10.2664 -10.2325 -10.2150 -10.1931
   -10.1039 -10.0631 -10.0459 -10.0098  -9.9705  -9.9308  -9.7982  -9.7674
    -9.7091  -9.6647  -9.4918  -9.4356  -9.2012  -9.1765  -9.0583  -9.0509
    -8.9352  -8.9057  -8.8357  -8.7584  -8.6877  -8.6198  -8.4896  -8.3532
    -8.3402  -8.3017  -8.2686  -8.1738  -7.9249  -7.8762  -7.8469  -7.4549
    -7.3274  -7.3138  -7.2447  -7.1558  -7.1517  -6.7311  -6.5320  -6.4751
    -6.4002  -6.3894  -6.3394  -6.3185  -6.2834  -6.1432  -6.0146  -5.9777
    -5.9494  -5.9200  -5.8775  -5.3265  -5.2458  -4.7760  -3.1441  -3.0517
    -2.2739  -2.0158  -1.7287  -1.5138  -1.5102  -1.3082  -1.2594  -1.2430
    -1.1976  -0.9539  -0.8997  -0.6156  -0.4805  -0.4195  -0.3579  -0.2858
    -0.2765  -0.2039  -0.1267  -0.0468  -0.0282  -0.0004   0.0074   0.0213
     0.0851

     the Fermi energy is    -3.7820 ev

     WARNING: integrated charge=   268.00020269, expected=   268.00000000

!    total energy              =    -890.04265079 Ry
     estimated scf accuracy    <       0.00000033 Ry
     smearing contrib. (-TS)   =       0.00000306 Ry
     internal energy E=F+TS    =    -890.04265385 Ry

     The total energy is F=E-TS. E is the sum of the following terms:
     one-electron contribution =  -15067.57647366 Ry
     hartree contribution      =    7570.94812133 Ry
     xc contribution           =    -246.92998766 Ry
     ewald contribution        =    6853.51568615 Ry

     convergence has been achieved in   3 iterations

     Writing all to output data dir /Users/behnamazizi/Downloads/core level shifts/planarCOOH/output/restart_data/pldc_cooh_N.save/ :
     XML data file, charge density, pseudopotentials, collected wavefunctions

     init_run     :      3.54s CPU      6.98s WALL (       1 calls)
     electrons    :     72.06s CPU     92.65s WALL (       1 calls)

     Called by init_run:
     wfcinit      :      0.07s CPU      0.17s WALL (       1 calls)
     potinit      :      0.93s CPU      1.28s WALL (       1 calls)
     hinit0       :      0.59s CPU      0.75s WALL (       1 calls)

     Called by electrons:
     c_bands      :     36.07s CPU     41.27s WALL (       4 calls)
     sum_band     :     17.40s CPU     26.57s WALL (       4 calls)
     v_of_rho     :      2.91s CPU      3.53s WALL (       4 calls)
     newd         :      5.50s CPU     12.05s WALL (       4 calls)
     mix_rho      :     11.89s CPU     13.77s WALL (       4 calls)

     Called by c_bands:
     init_us_2    :      0.38s CPU      0.75s WALL (       8 calls)
     regterg      :     35.38s CPU     40.22s WALL (       4 calls)

     Called by *egterg:
     rdiaghg      :      0.14s CPU      0.16s WALL (      16 calls)
     h_psi        :     29.14s CPU     32.39s WALL (      18 calls)
     s_psi        :      1.45s CPU      1.60s WALL (      18 calls)
     g_psi        :      0.05s CPU      0.06s WALL (      14 calls)

     Called by h_psi:
     h_psi:calbec :      2.22s CPU      2.44s WALL (      18 calls)
     vloc_psi     :     25.33s CPU     28.10s WALL (      18 calls)
                                        0.00s GPU  (      18 calls)
     add_vuspsi   :      1.50s CPU      1.58s WALL (      18 calls)

     General routines
     calbec       :      3.10s CPU      3.36s WALL (      22 calls)
     fft          :      2.56s CPU      2.84s WALL (      43 calls)
     ffts         :      8.34s CPU      9.34s WALL (     254 calls)
     fftw         :     26.43s CPU     29.21s WALL (    1758 calls)
     interpolate  :      0.39s CPU      0.45s WALL (       4 calls)

     Parallel routines

     PWSCF        :   1m15.81s CPU   1m40.38s WALL


   This run was terminated on:  17:42:35   2Aug2026            

=------------------------------------------------------------------------------=
   JOB DONE.
=------------------------------------------------------------------------------=
