
     Program PWSCF v.7.5 starts on  1Aug2026 at 22:11:16 

     This program is part of the open-source Quantum ESPRESSO suite
     for quantum simulation of materials; please cite
         "P. Giannozzi et al., J. Phys.:Condens. Matter 21 395502 (2009);
         "P. Giannozzi et al., J. Phys.:Condens. Matter 29 465901 (2017);
         "P. Giannozzi et al., J. Chem. Phys. 152 154105 (2020);
          URL http://www.quantum-espresso.org", 
     in publications or presentations arising from this work. More details at
     http://www.quantum-espresso.org/quote

     Parallel version (MPI), running on     4 processors

     MPI processes distributed on     1 nodes
     0 MiB available memory on the printing compute node when the environment starts

     Reading input from /Users/behnamazizi/Downloads/core level shifts/TWco/input/TWco.scf.in

     Current dimensions of program PWSCF are:
     Max number of different atomic species (ntypx) = 10
     Max number of k-points (npk) =  40000
     Max angular momentum in pseudopotentials (lmaxx) =  4
     file C.pbe-rrkjus.UPF: wavefunction(s)  2S 2P renormalized
     file H.pbe-rrkjus.UPF: wavefunction(s)  1S renormalized
     file O.pbe-rrkjus.UPF: wavefunction(s)  2S renormalized

     IMPORTANT: XC functional enforced from input :
     Exchange-correlation= PBE
                           (   1   4   3   4   0   0   0)
     Any further DFT definition will be discarded
     Please, verify this is what you really want


     gamma-point specific algorithms are used

     R & G space division:  proc/nbgrp/npool/nimage =       4
     Subspace diagonalization in iterative solution of the eigenvalue problem:
     one sub-group per band group will be used
     custom distributed-memory algorithm (size of sub-group:  2*  2 procs)


     Parallelization info
     --------------------
     sticks:   dense  smooth     PW     G-vecs:    dense   smooth      PW
     Min        7986    5331   1333              1074872   585126   73123
     Max        7989    5334   1336              1074881   585128   73126
     Sum       31949   21329   5337              4299501  2340509  292499

     Using Slab Decomposition



     bravais-lattice index     =            1
     lattice parameter (alat)  =      47.2432  a.u.
     unit-cell volume          =  105442.7265 (a.u.)^3
     number of atoms/cell      =           87
     number of atomic types    =            7
     number of electrons       =       282.00
     number of Kohn-Sham states=          169
     kinetic-energy cutoff     =      30.0000  Ry
     charge density cutoff     =     180.0000  Ry
     scf convergence threshold =      1.0E-06
     mixing beta               =       0.2000
     number of iterations used =           20  local-TF  mixing
     Exchange-correlation= PBE
                           (   1   4   3   4   0   0   0)
     Assuming isolated system, Martyna-Tuckerman method


     celldm(1)=  47.243153  celldm(2)=   0.000000  celldm(3)=   0.000000
     celldm(4)=   0.000000  celldm(5)=   0.000000  celldm(6)=   0.000000

     crystal axes: (cart. coord. in units of alat)
               a(1) = (   1.000000   0.000000   0.000000 )  
               a(2) = (   0.000000   1.000000   0.000000 )  
               a(3) = (   0.000000   0.000000   1.000000 )  

     reciprocal axes: (cart. coord. in units 2 pi/alat)
               b(1) = (  1.000000  0.000000  0.000000 )  
               b(2) = (  0.000000  1.000000  0.000000 )  
               b(3) = (  0.000000  0.000000  1.000000 )  


     PseudoPot. # 1 for Zn read from file:
     /Users/behnamazizi/Downloads/core level shifts/pseudopotential/Zn.pbe-van.UPF
     MD5 check sum: e89cebcf7a22e388733959be9607aa2e
     Pseudo is Ultrasoft, Zval = 12.0
     Generated by new atomic code, or converted to UPF format
     Using radial grid of  869 points,  6 beta functions with: 
                l(1) =   0
                l(2) =   0
                l(3) =   1
                l(4) =   1
                l(5) =   2
                l(6) =   2
     Q(r) pseudized with  8 coefficients,  rinner =    0.800   0.800   0.800
                                                       0.800   0.800

     PseudoPot. # 2 for C  read from file:
     /Users/behnamazizi/Downloads/core level shifts/pseudopotential/C.pbe-rrkjus.UPF
     MD5 check sum: c9ac5a99bc85b198593446162950cd17
     Pseudo is Ultrasoft, Zval =  4.0
     Generated by new atomic code, or converted to UPF format
     Using radial grid of  627 points,  4 beta functions with: 
                l(1) =   0
                l(2) =   0
                l(3) =   1
                l(4) =   1
     Q(r) pseudized with 0 coefficients 


     PseudoPot. # 3 for N  read from file:
     /Users/behnamazizi/Downloads/core level shifts/pseudopotential/N.pbe-van_ak.UPF
     MD5 check sum: 090a72b4b4f32b788c2341547a991be6
     Pseudo is Ultrasoft, Zval =  5.0
     Generated by new atomic code, or converted to UPF format
     Using radial grid of  729 points,  4 beta functions with: 
                l(1) =   0
                l(2) =   0
                l(3) =   1
                l(4) =   1
     Q(r) pseudized with  8 coefficients,  rinner =    0.800   0.800   0.800


     PseudoPot. # 4 for H  read from file:
     /Users/behnamazizi/Downloads/core level shifts/pseudopotential/H.pbe-rrkjus.UPF
     MD5 check sum: 2d52a7f45632fd764c17cc6affed14c8
     Pseudo is Ultrasoft, Zval =  1.0
     Generated by new atomic code, or converted to UPF format
     Using radial grid of 1061 points,  2 beta functions with: 
                l(1) =   0
                l(2) =   0
     Q(r) pseudized with 0 coefficients 


     PseudoPot. # 5 for O  read from file:
     /Users/behnamazizi/Downloads/core level shifts/pseudopotential/O.pbe-rrkjus.UPF
     MD5 check sum: fadcf19ee70a498d3030e2e79cf929a4
     Pseudo is Ultrasoft, Zval =  6.0
     Generated by new atomic code, or converted to UPF format
     Using radial grid of 1269 points,  4 beta functions with: 
                l(1) =   0
                l(2) =   0
                l(3) =   1
                l(4) =   1
     Q(r) pseudized with 0 coefficients 


     PseudoPot. # 6 for C  read from file:
     /Users/behnamazizi/Downloads/core level shifts/pseudopotential/C.star1s-pbe-rrkjus.UPF
     MD5 check sum: d6a66a864dce4990f98654a67f8dd415
     Pseudo is Ultrasoft, Zval =  5.0
     Generated by new atomic code, or converted to UPF format
     Using radial grid of 1073 points,  4 beta functions with: 
                l(1) =   0
                l(2) =   0
                l(3) =   1
                l(4) =   1
     Q(r) pseudized with 0 coefficients 


     PseudoPot. # 7 for N  read from file:
     /Users/behnamazizi/Downloads/core level shifts/pseudopotential/N.star1s-pbe-van.UPF
     MD5 check sum: ee94cefccf6368fcf05291e556b07c24
     Pseudo is Ultrasoft, Zval =  6.0
     Generated by new atomic code, or converted to UPF format
     Using radial grid of  729 points,  4 beta functions with: 
                l(1) =   0
                l(2) =   0
                l(3) =   1
                l(4) =   1
     Q(r) pseudized with  8 coefficients,  rinner =    0.800   0.800   0.800


     atomic species   valence    mass     pseudopotential
     Zn               12.00    65.38000     Zn( 1.00)
     C                 4.00    12.01100     C ( 1.00)
     N                 5.00    14.00700     N ( 1.00)
     H                 1.00     1.00800     H ( 1.00)
     O                 6.00    15.99900     O ( 1.00)
     Cs                5.00    12.01100     C ( 1.00)
     Ns                6.00    14.00700     N ( 1.00)

     No symmetry found



   Cartesian axes

     site n.     atom                  positions (alat units)
         1        Zn     tau(   1) = (   0.0012120  -0.0025884  -0.0017476  )
         2        C      tau(   2) = (   0.1596088  -0.0276856  -0.0171648  )
         3        C      tau(   3) = (   0.1627800   0.0259252  -0.0133916  )
         4        C      tau(   4) = (   0.1073792  -0.0437060   0.0044840  )
         5        C      tau(   5) = (   0.1122480   0.0431068   0.0098380  )
         6        C      tau(   6) = (   0.0941004  -0.1005768   0.0125788  )
         7        C      tau(   7) = (   0.2273756  -0.1754432   0.0273872  )
         8        C      tau(   8) = (   0.2173484  -0.2223112  -0.0021716  )
         9        C      tau(   9) = (   0.1879236  -0.1358480   0.0322844  )
        10        C      tau(  10) = (   0.1675992  -0.2286508  -0.0270556  )
        11        C      tau(  11) = (   0.1375780  -0.1425580   0.0079760  )
        12        C      tau(  12) = (   0.1284604  -0.1893728  -0.0222652  )
        13        C      tau(  13) = (   0.0988772   0.0941060   0.0194884  )
        14        C      tau(  14) = (   0.2274740   0.1774712   0.0210960  )
        15        C      tau(  15) = (   0.2110576   0.2238068  -0.0053324  )
        16        C      tau(  16) = (   0.1914992   0.1353884   0.0291020  )
        17        C      tau(  17) = (   0.1585800   0.2282816  -0.0237416  )
        18        C      tau(  18) = (   0.1382632   0.1391712   0.0106856  )
        19        C      tau(  19) = (   0.1223396   0.1864576  -0.0157772  )
        20        C      tau(  20) = (   0.0435172  -0.1149412   0.0213268  )
        21        C      tau(  21) = (   0.0435420   0.1067672   0.0343540  )
        22        C      tau(  22) = (   0.0275184  -0.1665128   0.0337536  )
        23        C      tau(  23) = (   0.0276920   0.1562716   0.0531024  )
        24        C      tau(  24) = (  -0.0261300  -0.1663452   0.0345996  )
        25        C      tau(  25) = (  -0.0263624   0.1562616   0.0531344  )
        26        C      tau(  26) = (  -0.0420288  -0.1147968   0.0223812  )
        27        C      tau(  27) = (  -0.0421300   0.1067828   0.0344044  )
        28        C      tau(  28) = (  -0.0925460  -0.1001084   0.0145240  )
        29        C      tau(  29) = (  -0.1319756  -0.1895120  -0.0147788  )
        30        C      tau(  30) = (  -0.1375844  -0.1405980   0.0130372  )
        31        C      tau(  31) = (  -0.1739148  -0.2263364  -0.0165220  )
        32        C      tau(  32) = (  -0.1868264  -0.1296476   0.0382608  )
        33        C      tau(  33) = (  -0.2221696  -0.2150388   0.0090344  )
        34        C      tau(  34) = (  -0.2286724  -0.1667416   0.0362872  )
        35        C      tau(  35) = (  -0.0973344   0.0939812   0.0193504  )
        36        C      tau(  36) = (  -0.1237272   0.1868784  -0.0130644  )
        37        C      tau(  37) = (  -0.1378804   0.1382524   0.0116820  )
        38        C      tau(  38) = (  -0.1615560   0.2275748  -0.0198008  )
        39        C      tau(  39) = (  -0.1908992   0.1319284   0.0298696  )
        40        C      tau(  40) = (  -0.2143572   0.2207316  -0.0017692  )
        41        C      tau(  41) = (  -0.2285844   0.1725628   0.0231784  )
        42        C      tau(  42) = (  -0.1049196  -0.0435560   0.0044908  )
        43        C      tau(  43) = (  -0.1099160   0.0430648   0.0088488  )
        44        C      tau(  44) = (  -0.1565592  -0.0278352  -0.0186432  )
        45        C      tau(  45) = (  -0.1598620   0.0256604  -0.0154400  )
        46        N      tau(  46) = (   0.0794920  -0.0026568   0.0210600  )
        47        N      tau(  47) = (   0.0008072  -0.0816140   0.0175900  )
        48        N      tau(  48) = (   0.0007484   0.0742056   0.0260764  )
        49        N      tau(  49) = (  -0.0771496  -0.0024524   0.0208252  )
        50        H      tau(  50) = (   0.2390008   0.2563052  -0.0114884  )
        51        H      tau(  51) = (  -0.2546136  -0.2436536   0.0075080  )
        52        H      tau(  52) = (   0.1906948  -0.0529324  -0.0334876  )
        53        H      tau(  53) = (   0.1964840   0.0493116  -0.0269576  )
        54        H      tau(  54) = (   0.0516008  -0.2016468   0.0410428  )
        55        H      tau(  55) = (   0.0525860   0.1901964   0.0631604  )
        56        H      tau(  56) = (  -0.0501544  -0.2013420   0.0425344  )
        57        H      tau(  57) = (  -0.0512528   0.1901724   0.0632060  )
        58        H      tau(  58) = (  -0.1872096  -0.0533360  -0.0354228  )
        59        H      tau(  59) = (  -0.1932644   0.0488672  -0.0300360  )
        60        H      tau(  60) = (   0.2656248  -0.1695972   0.0468276  )
        61        H      tau(  61) = (   0.1964544  -0.1004120   0.0556516  )
        62        H      tau(  62) = (   0.1588608  -0.2640728  -0.0504168  )
        63        H      tau(  63) = (   0.0908324  -0.1954164  -0.0428204  )
        64        H      tau(  64) = (   0.2681392   0.1741872   0.0355860  )
        65        H      tau(  65) = (   0.2050380   0.1002364   0.0504208  )
        66        H      tau(  66) = (   0.1459096   0.2642196  -0.0443076  )
        67        H      tau(  67) = (   0.0820260   0.1907788  -0.0309412  )
        68        H      tau(  68) = (  -0.0954172  -0.1989552  -0.0359492  )
        69        H      tau(  69) = (  -0.1689872  -0.2636092  -0.0380100  )
        70        H      tau(  70) = (  -0.1926784  -0.0925888   0.0598752  )
        71        H      tau(  71) = (  -0.2662308  -0.1580056   0.0559360  )
        72        H      tau(  72) = (  -0.0835848   0.1931940  -0.0279520  )
        73        H      tau(  73) = (  -0.1495816   0.2643900  -0.0392256  )
        74        H      tau(  74) = (  -0.2030972   0.0956180   0.0500416  )
        75        H      tau(  75) = (  -0.2689124   0.1663196   0.0376996  )
        76        O      tau(  76) = (  -0.0604008  -0.0065792   0.0708652  )
        77        H      tau(  77) = (  -0.0814612   0.0069964   0.1004596  )
        78        O      tau(  78) = (   0.0624816  -0.0072844   0.0709736  )
        79        H      tau(  79) = (   0.0831892   0.0063576   0.1007864  )
        80        C      tau(  80) = (  -0.2547140   0.2637132  -0.0088024  )
        81        O      tau(  81) = (  -0.3053584   0.2564744   0.0086628  )
        82        H      tau(  82) = (  -0.3322192   0.2840172   0.0043808  )
        83        O      tau(  83) = (  -0.2424212   0.3058156  -0.0304348  )
        84        C      tau(  84) = (   0.2584840  -0.2647940  -0.0073648  )
        85        O      tau(  85) = (   0.2475820  -0.3096960  -0.0354816  )
        86        H      tau(  86) = (   0.2736432  -0.3380776  -0.0391164  )
        87        O      tau(  87) = (   0.3021872  -0.2596220   0.0139304  )

     number of k points=     1  Marzari-Vanderbilt smearing, width (Ry)=  0.0200
                       cart. coord. in units 2pi/alat
        k(    1) = (   0.0000000   0.0000000   0.0000000), wk =   2.0000000

     Dense  grid:  2149751 G-vectors     FFT dimensions: ( 216, 216, 216)

     Smooth grid:  1170255 G-vectors     FFT dimensions: ( 180, 180, 180)

     Estimated max dynamical RAM per process >       2.92 GB

     Estimated total dynamical RAM >      11.67 GB

     Initial potential from superposition of free atoms

     starting charge     279.1113, renormalised to     282.0000

     negative rho (up, down):  3.894E-02 0.000E+00
     Starting wfcs are  260 randomized atomic wfcs

     total cpu time spent up to now is       46.6 secs

     Self-consistent Calculation

     iteration #  1     ecut=    30.00 Ry     beta= 0.20
     Davidson diagonalization with overlap
     ethr =  1.00E-02,  avg # of iterations =  7.0

     negative rho (up, down):  1.067E-02 0.000E+00

     total cpu time spent up to now is      182.1 secs

     total energy              =    -952.46558814 Ry
     estimated scf accuracy    <     132.15058409 Ry

     iteration #  2     ecut=    30.00 Ry     beta= 0.20
     Davidson diagonalization with overlap
     ethr =  1.00E-02,  avg # of iterations =  2.0

     negative rho (up, down):  6.612E-03 0.000E+00

     total cpu time spent up to now is      284.9 secs

     total energy              =    -958.91577306 Ry
     estimated scf accuracy    <      12.90151490 Ry

     iteration #  3     ecut=    30.00 Ry     beta= 0.20
     Davidson diagonalization with overlap
     ethr =  4.58E-03,  avg # of iterations =  1.0

     negative rho (up, down):  1.212E-02 0.000E+00

     total cpu time spent up to now is      388.9 secs

     total energy              =    -954.98250552 Ry
     estimated scf accuracy    <      10.19718077 Ry

     iteration #  4     ecut=    30.00 Ry     beta= 0.20
     Davidson diagonalization with overlap
     ethr =  3.62E-03,  avg # of iterations =  2.0

     negative rho (up, down):  6.538E-03 0.000E+00

     total cpu time spent up to now is      489.6 secs

     total energy              =    -955.50761622 Ry
     estimated scf accuracy    <       2.29042184 Ry

     iteration #  5     ecut=    30.00 Ry     beta= 0.20
     Davidson diagonalization with overlap
     ethr =  8.12E-04,  avg # of iterations = 19.0

     negative rho (up, down):  4.107E-03 0.000E+00

     total cpu time spent up to now is      634.9 secs

     total energy              =    -956.26594915 Ry
     estimated scf accuracy    <       1.84225662 Ry

     iteration #  6     ecut=    30.00 Ry     beta= 0.20
     Davidson diagonalization with overlap
     ethr =  6.53E-04,  avg # of iterations =  2.0

     negative rho (up, down):  3.418E-04 0.000E+00

     total cpu time spent up to now is      735.1 secs

     total energy              =    -956.03948621 Ry
     estimated scf accuracy    <       1.78806503 Ry

     iteration #  7     ecut=    30.00 Ry     beta= 0.20
     Davidson diagonalization with overlap
     ethr =  6.34E-04,  avg # of iterations =  2.0

     negative rho (up, down):  1.007E-02 0.000E+00

     total cpu time spent up to now is      836.7 secs

     total energy              =    -955.80985241 Ry
     estimated scf accuracy    <       1.13014209 Ry

     iteration #  8     ecut=    30.00 Ry     beta= 0.20
     Davidson diagonalization with overlap
     ethr =  4.01E-04,  avg # of iterations =  4.0

     negative rho (up, down):  7.115E-04 0.000E+00

     total cpu time spent up to now is      941.8 secs

     total energy              =    -955.89908563 Ry
     estimated scf accuracy    <       0.74042381 Ry

     iteration #  9     ecut=    30.00 Ry     beta= 0.20
     Davidson diagonalization with overlap
     c_bands:  5 eigenvalues not converged
     ethr =  2.63E-04,  avg # of iterations = 20.0

     negative rho (up, down):  2.194E-01 0.000E+00

     total cpu time spent up to now is     1055.0 secs

     total energy              =    -955.72921677 Ry
     estimated scf accuracy    <       0.67710399 Ry

     iteration # 10     ecut=    30.00 Ry     beta= 0.20
     Davidson diagonalization with overlap
     c_bands:  4 eigenvalues not converged
     ethr =  2.40E-04,  avg # of iterations = 20.0

     negative rho (up, down):  3.887E-01 0.000E+00

     total cpu time spent up to now is     1190.5 secs

     total energy              =    -955.76843913 Ry
     estimated scf accuracy    <       0.37054646 Ry

     iteration # 11     ecut=    30.00 Ry     beta= 0.20
     Davidson diagonalization with overlap
     ethr =  1.31E-04,  avg # of iterations = 14.0

     negative rho (up, down):  1.442E-01 0.000E+00

     total cpu time spent up to now is     1307.5 secs

     total energy              =    -955.76161047 Ry
     estimated scf accuracy    <       0.33505549 Ry

     iteration # 12     ecut=    30.00 Ry     beta= 0.20
     Davidson diagonalization with overlap
     ethr =  1.19E-04,  avg # of iterations =  1.0

     negative rho (up, down):  6.189E-01 0.000E+00

     total cpu time spent up to now is     1406.6 secs

     total energy              =    -955.74318063 Ry
     estimated scf accuracy    <       0.24127818 Ry

     iteration # 13     ecut=    30.00 Ry     beta= 0.20
     Davidson diagonalization with overlap
     c_bands:  1 eigenvalues not converged
     ethr =  8.56E-05,  avg # of iterations = 40.0

     negative rho (up, down):  3.741E-01 0.000E+00

     total cpu time spent up to now is     1586.9 secs

     total energy              =    -955.73903056 Ry
     estimated scf accuracy    <       0.24555804 Ry

     iteration # 14     ecut=    30.00 Ry     beta= 0.20
     Davidson diagonalization with overlap
     ethr =  8.56E-05,  avg # of iterations =  2.0

     negative rho (up, down):  7.129E-01 0.000E+00

     total cpu time spent up to now is     1687.0 secs

     total energy              =    -955.70712470 Ry
     estimated scf accuracy    <       0.16988519 Ry

     iteration # 15     ecut=    30.00 Ry     beta= 0.20
     Davidson diagonalization with overlap
     ethr =  6.02E-05,  avg # of iterations =  2.0

     negative rho (up, down):  6.262E-01 0.000E+00

     total cpu time spent up to now is     1792.8 secs

     total energy              =    -955.69488089 Ry
     estimated scf accuracy    <       0.12333651 Ry

     iteration # 16     ecut=    30.00 Ry     beta= 0.20
     Davidson diagonalization with overlap
     c_bands:  5 eigenvalues not converged
     ethr =  4.37E-05,  avg # of iterations = 40.0

     negative rho (up, down):  6.539E-01 0.000E+00

     total cpu time spent up to now is     1987.2 secs

     total energy              =    -955.67375069 Ry
     estimated scf accuracy    <       0.08771041 Ry

     iteration # 17     ecut=    30.00 Ry     beta= 0.20
     Davidson diagonalization with overlap
     c_bands:  1 eigenvalues not converged
     ethr =  3.11E-05,  avg # of iterations = 40.0

     negative rho (up, down):  7.116E-01 0.000E+00

     total cpu time spent up to now is     2168.4 secs

     total energy              =    -955.66992172 Ry
     estimated scf accuracy    <       0.06136285 Ry

     iteration # 18     ecut=    30.00 Ry     beta= 0.20
     Davidson diagonalization with overlap
     c_bands:  2 eigenvalues not converged
     ethr =  2.18E-05,  avg # of iterations = 20.0

     negative rho (up, down):  4.615E-01 0.000E+00

     total cpu time spent up to now is     2307.6 secs

     total energy              =    -955.65967300 Ry
     estimated scf accuracy    <       0.03840235 Ry

     iteration # 19     ecut=    30.00 Ry     beta= 0.20
     Davidson diagonalization with overlap
     c_bands:  3 eigenvalues not converged
     ethr =  1.36E-05,  avg # of iterations = 60.0

     negative rho (up, down):  3.660E-01 0.000E+00

     total cpu time spent up to now is     2599.4 secs

     total energy              =    -955.66148664 Ry
     estimated scf accuracy    <       0.02720676 Ry

     iteration # 20     ecut=    30.00 Ry     beta= 0.20
     Davidson diagonalization with overlap
     ethr =  9.65E-06,  avg # of iterations =  2.0

     negative rho (up, down):  2.595E-01 0.000E+00

     total cpu time spent up to now is     2703.3 secs

     total energy              =    -955.65557625 Ry
     estimated scf accuracy    <       0.01475186 Ry

     iteration # 21     ecut=    30.00 Ry     beta= 0.20
     Davidson diagonalization with overlap
     c_bands:  2 eigenvalues not converged
     ethr =  5.23E-06,  avg # of iterations = 40.0

     negative rho (up, down):  2.490E-01 0.000E+00

     total cpu time spent up to now is     2940.9 secs

     total energy              =    -955.66137877 Ry
     estimated scf accuracy    <       0.00757349 Ry

     iteration # 22     ecut=    30.00 Ry     beta= 0.20
     Davidson diagonalization with overlap
     c_bands:  2 eigenvalues not converged
     ethr =  2.69E-06,  avg # of iterations = 20.0

     negative rho (up, down):  1.331E-01 0.000E+00

     total cpu time spent up to now is     3062.6 secs

     total energy              =    -955.65851156 Ry
     estimated scf accuracy    <       0.00584970 Ry

     iteration # 23     ecut=    30.00 Ry     beta= 0.20
     Davidson diagonalization with overlap
     c_bands:  2 eigenvalues not converged
     ethr =  2.07E-06,  avg # of iterations = 40.0

     negative rho (up, down):  1.300E-01 0.000E+00

     total cpu time spent up to now is     3282.5 secs

     total energy              =    -955.65994399 Ry
     estimated scf accuracy    <       0.00108001 Ry

     iteration # 24     ecut=    30.00 Ry     beta= 0.20
     Davidson diagonalization with overlap
     c_bands:  2 eigenvalues not converged
     ethr =  3.83E-07,  avg # of iterations = 20.0

     negative rho (up, down):  1.243E-01 0.000E+00

     total cpu time spent up to now is     3432.8 secs

     total energy              =    -955.66054599 Ry
     estimated scf accuracy    <       0.00124224 Ry

     iteration # 25     ecut=    30.00 Ry     beta= 0.20
     Davidson diagonalization with overlap
     c_bands:  2 eigenvalues not converged
     ethr =  3.83E-07,  avg # of iterations = 20.0

     negative rho (up, down):  8.900E-02 0.000E+00

     total cpu time spent up to now is     3552.5 secs

     total energy              =    -955.66009993 Ry
     estimated scf accuracy    <       0.00103362 Ry

     iteration # 26     ecut=    30.00 Ry     beta= 0.20
     Davidson diagonalization with overlap
     c_bands:  1 eigenvalues not converged
     ethr =  3.67E-07,  avg # of iterations = 40.0

     negative rho (up, down):  8.806E-02 0.000E+00

     total cpu time spent up to now is     3771.5 secs

     total energy              =    -955.66022037 Ry
     estimated scf accuracy    <       0.00066747 Ry

     iteration # 27     ecut=    30.00 Ry     beta= 0.20
     Davidson diagonalization with overlap
     ethr =  2.37E-07,  avg # of iterations =  4.0

     negative rho (up, down):  8.151E-02 0.000E+00

     total cpu time spent up to now is     3887.5 secs

     total energy              =    -955.66027745 Ry
     estimated scf accuracy    <       0.00025080 Ry

     iteration # 28     ecut=    30.00 Ry     beta= 0.20
     Davidson diagonalization with overlap
     ethr =  8.89E-08,  avg # of iterations =  7.0

     negative rho (up, down):  7.923E-02 0.000E+00

     total cpu time spent up to now is     4002.6 secs

     total energy              =    -955.66027341 Ry
     estimated scf accuracy    <       0.00012886 Ry

     iteration # 29     ecut=    30.00 Ry     beta= 0.20
     Davidson diagonalization with overlap
     ethr =  4.57E-08,  avg # of iterations =  5.0

     negative rho (up, down):  7.844E-02 0.000E+00

     total cpu time spent up to now is     4124.4 secs

     total energy              =    -955.66031040 Ry
     estimated scf accuracy    <       0.00006391 Ry

     iteration # 30     ecut=    30.00 Ry     beta= 0.20
     Davidson diagonalization with overlap
     ethr =  2.27E-08,  avg # of iterations =  7.0

     negative rho (up, down):  7.777E-02 0.000E+00

     total cpu time spent up to now is     4239.8 secs

     total energy              =    -955.66031488 Ry
     estimated scf accuracy    <       0.00005565 Ry

     iteration # 31     ecut=    30.00 Ry     beta= 0.20
     Davidson diagonalization with overlap
     ethr =  1.97E-08,  avg # of iterations =  5.0

     negative rho (up, down):  7.842E-02 0.000E+00

     total cpu time spent up to now is     4347.6 secs

     total energy              =    -955.66031127 Ry
     estimated scf accuracy    <       0.00002950 Ry

     iteration # 32     ecut=    30.00 Ry     beta= 0.20
     Davidson diagonalization with overlap
     ethr =  1.05E-08,  avg # of iterations =  8.0

     negative rho (up, down):  7.838E-02 0.000E+00

     total cpu time spent up to now is     4464.0 secs

     total energy              =    -955.66031514 Ry
     estimated scf accuracy    <       0.00000952 Ry

     iteration # 33     ecut=    30.00 Ry     beta= 0.20
     Davidson diagonalization with overlap
     ethr =  3.38E-09,  avg # of iterations =  7.0

     negative rho (up, down):  7.786E-02 0.000E+00

     total cpu time spent up to now is     4615.6 secs

     total energy              =    -955.66032025 Ry
     estimated scf accuracy    <       0.00001105 Ry

     iteration # 34     ecut=    30.00 Ry     beta= 0.20
     Davidson diagonalization with overlap
     ethr =  3.38E-09,  avg # of iterations =  2.0

     negative rho (up, down):  7.733E-02 0.000E+00

     total cpu time spent up to now is     4715.7 secs

     total energy              =    -955.66031776 Ry
     estimated scf accuracy    <       0.00000646 Ry

     iteration # 35     ecut=    30.00 Ry     beta= 0.20
     Davidson diagonalization with overlap
     ethr =  2.29E-09,  avg # of iterations =  5.0

     negative rho (up, down):  7.723E-02 0.000E+00

     total cpu time spent up to now is     4826.2 secs

     total energy              =    -955.66031861 Ry
     estimated scf accuracy    <       0.00000249 Ry

     iteration # 36     ecut=    30.00 Ry     beta= 0.20
     Davidson diagonalization with overlap
     ethr =  8.84E-10,  avg # of iterations =  5.0

     negative rho (up, down):  7.727E-02 0.000E+00

     total cpu time spent up to now is     4954.5 secs

     total energy              =    -955.66031948 Ry
     estimated scf accuracy    <       0.00000190 Ry

     iteration # 37     ecut=    30.00 Ry     beta= 0.20
     Davidson diagonalization with overlap
     ethr =  6.73E-10,  avg # of iterations =  2.0

     negative rho (up, down):  7.733E-02 0.000E+00

     total cpu time spent up to now is     5060.5 secs

     total energy              =    -955.66031924 Ry
     estimated scf accuracy    <       0.00000150 Ry

     iteration # 38     ecut=    30.00 Ry     beta= 0.20
     Davidson diagonalization with overlap
     ethr =  5.33E-10,  avg # of iterations =  5.0

     negative rho (up, down):  7.712E-02 0.000E+00

     total cpu time spent up to now is     5188.2 secs

     total energy              =    -955.66031977 Ry
     estimated scf accuracy    <       0.00000138 Ry

     iteration # 39     ecut=    30.00 Ry     beta= 0.20
     Davidson diagonalization with overlap
     ethr =  4.89E-10,  avg # of iterations =  2.0

     negative rho (up, down):  7.770E-02 0.000E+00

     total cpu time spent up to now is     5265.1 secs

     End of self-consistent calculation

          k = 0.0000 0.0000 0.0000 (146250 PWs)   bands (ev):

   -29.4449 -29.4027 -27.2447 -27.2258 -24.8215 -24.8057 -24.2145 -24.0126
   -23.8362 -23.7766 -21.5886 -21.5181 -21.3500 -21.2669 -20.6165 -20.2784
   -20.0652 -19.6911 -19.6143 -19.3626 -19.0792 -18.8830 -18.6608 -18.6093
   -18.5705 -18.4738 -18.4027 -18.3487 -18.1616 -17.7080 -17.5950 -16.6949
   -16.5493 -16.5062 -16.3572 -16.1775 -15.9253 -15.4049 -15.2346 -15.0831
   -14.9011 -14.8557 -14.7744 -14.6374 -14.5908 -14.5730 -14.4323 -14.0185
   -13.9150 -13.7201 -13.6911 -13.4070 -13.1529 -13.1166 -12.9999 -12.8121
   -12.6979 -12.6029 -12.4881 -12.3463 -12.2704 -12.2191 -11.9925 -11.6407
   -11.4377 -11.3246 -11.2646 -11.2091 -11.1578 -11.0628 -11.0393 -11.0033
   -10.9291 -10.8975 -10.8881 -10.8576 -10.7851 -10.6897 -10.6671 -10.6540
   -10.6304 -10.5865 -10.5643 -10.3713 -10.3400 -10.2425 -10.2046 -10.1306
   -10.0979 -10.0029  -9.9461  -9.8922  -9.8377  -9.7533  -9.6084  -9.2654
    -9.1383  -9.0915  -9.0377  -8.9644  -8.9511  -8.8265  -8.7828  -8.7335
    -8.6888  -8.6770  -8.6121  -8.5918  -8.4682  -8.4189  -8.3114  -8.2541
    -8.2292  -8.1886  -8.1443  -8.1305  -8.0620  -7.8785  -7.7209  -7.5578
    -7.3792  -7.2927  -7.0858  -7.0533  -6.9051  -6.6271  -6.4576  -6.4174
    -6.3276  -6.3013  -6.2576  -6.1462  -6.1146  -6.0095  -5.8870  -5.8372
    -5.8145  -5.6772  -4.9979  -4.8605  -3.5051  -3.0331  -2.4180  -2.2249
    -2.1492  -1.9944  -1.5082  -1.4501  -1.3671  -1.3094  -1.2236  -1.1407
    -0.9789  -0.7677  -0.7388  -0.5146  -0.4385  -0.4008  -0.2578  -0.2470
    -0.1626  -0.1230  -0.0859   0.0012   0.0157   0.0314   0.0894   0.1153
     0.1699

     the Fermi energy is    -3.2806 ev

!    total energy              =    -955.66031874 Ry
     estimated scf accuracy    <       0.00000071 Ry
     smearing contrib. (-TS)   =      -0.00003628 Ry
     internal energy E=F+TS    =    -955.66028246 Ry

     The total energy is F=E-TS. E is the sum of the following terms:
     one-electron contribution =  -17070.16292258 Ry
     hartree contribution      =    8573.85345364 Ry
     xc contribution           =    -263.43545239 Ry
     ewald contribution        =    7804.08463888 Ry

     convergence has been achieved in  39 iterations

     Writing all to output data dir /Users/behnamazizi/Downloads/core level shifts/TWco/output/restart_data/twco_cls.save/ :
     XML data file, charge density, pseudopotentials, collected wavefunctions

     init_run     :     31.10s CPU     46.21s WALL (       1 calls)
     electrons    :   3312.02s CPU   5218.90s WALL (       1 calls)

     Called by init_run:
     wfcinit      :     21.72s CPU     30.99s WALL (       1 calls)
     potinit      :      2.70s CPU      3.95s WALL (       1 calls)
     hinit0       :      1.73s CPU      2.55s WALL (       1 calls)

     Called by electrons:
     c_bands      :   1977.20s CPU   2931.35s WALL (      39 calls)
     sum_band     :    451.32s CPU    862.32s WALL (      39 calls)
     v_of_rho     :     85.27s CPU    126.63s WALL (      40 calls)
     newd         :    142.85s CPU    312.21s WALL (      40 calls)
     mix_rho      :    646.24s CPU    969.54s WALL (      39 calls)

     Called by c_bands:
     init_us_2    :     11.68s CPU     28.70s WALL (      79 calls)
     regterg      :   1959.61s CPU   2896.18s WALL (      47 calls)

     Called by *egterg:
     rdiaghg      :     26.58s CPU     38.97s WALL (     591 calls)
     h_psi        :   1524.74s CPU   2240.78s WALL (     592 calls)
     s_psi        :    104.52s CPU    154.78s WALL (     592 calls)
     g_psi        :      2.14s CPU      3.40s WALL (     544 calls)

     Called by h_psi:
     h_psi:calbec :    143.33s CPU    210.73s WALL (     592 calls)
     vloc_psi     :   1274.13s CPU   1871.56s WALL (     592 calls)
                                        0.00s GPU  (     592 calls)
     add_vuspsi   :    104.28s CPU    153.63s WALL (     592 calls)

     General routines
     calbec       :    176.94s CPU    260.16s WALL (     631 calls)
     fft          :     86.57s CPU    125.70s WALL (     438 calls)
     ffts         :    494.05s CPU    714.04s WALL (    4753 calls)
     fftw         :   1372.56s CPU   2000.59s WALL (   24561 calls)
     interpolate  :     13.09s CPU     19.58s WALL (      40 calls)

     Parallel routines

     PWSCF        :  55m44.07s CPU      1h27m WALL


   This run was terminated on:  23:39: 3   1Aug2026            

=------------------------------------------------------------------------------=
   JOB DONE.
=------------------------------------------------------------------------------=
