
     Program PWSCF v.7.5 starts on  1Aug2026 at 21: 3: 8 

     This program is part of the open-source Quantum ESPRESSO suite
     for quantum simulation of materials; please cite
         "P. Giannozzi et al., J. Phys.:Condens. Matter 21 395502 (2009);
         "P. Giannozzi et al., J. Phys.:Condens. Matter 29 465901 (2017);
         "P. Giannozzi et al., J. Chem. Phys. 152 154105 (2020);
          URL http://www.quantum-espresso.org", 
     in publications or presentations arising from this work. More details at
     http://www.quantum-espresso.org/quote

     Parallel version (MPI), running on     4 processors

     MPI processes distributed on     1 nodes
     0 MiB available memory on the printing compute node when the environment starts

     Reading input from /Users/behnamazizi/Downloads/core level shifts/twistedO2/input/twistedO2.scf.in

     Current dimensions of program PWSCF are:
     Max number of different atomic species (ntypx) = 10
     Max number of k-points (npk) =  40000
     Max angular momentum in pseudopotentials (lmaxx) =  4
     file C.pbe-rrkjus.UPF: wavefunction(s)  2S 2P renormalized
     file H.pbe-rrkjus.UPF: wavefunction(s)  1S renormalized
     file O.pbe-rrkjus.UPF: wavefunction(s)  2S renormalized

     IMPORTANT: XC functional enforced from input :
     Exchange-correlation= PBE
                           (   1   4   3   4   0   0   0)
     Any further DFT definition will be discarded
     Please, verify this is what you really want


     gamma-point specific algorithms are used

     R & G space division:  proc/nbgrp/npool/nimage =       4
     Subspace diagonalization in iterative solution of the eigenvalue problem:
     one sub-group per band group will be used
     custom distributed-memory algorithm (size of sub-group:  2*  2 procs)


     Parallelization info
     --------------------
     sticks:   dense  smooth     PW     G-vecs:    dense   smooth      PW
     Min        7986    5331   1333              1074872   585126   73123
     Max        7989    5334   1336              1074881   585128   73126
     Sum       31949   21329   5337              4299501  2340509  292499

     Using Slab Decomposition



     bravais-lattice index     =            1
     lattice parameter (alat)  =      47.2432  a.u.
     unit-cell volume          =  105442.7265 (a.u.)^3
     number of atoms/cell      =           81
     number of atomic types    =            7
     number of electrons       =       250.00
     number of Kohn-Sham states=          150
     kinetic-energy cutoff     =      30.0000  Ry
     charge density cutoff     =     180.0000  Ry
     scf convergence threshold =      1.0E-06
     mixing beta               =       0.2000
     number of iterations used =           20  local-TF  mixing
     Exchange-correlation= PBE
                           (   1   4   3   4   0   0   0)
     Assuming isolated system, Martyna-Tuckerman method


     celldm(1)=  47.243153  celldm(2)=   0.000000  celldm(3)=   0.000000
     celldm(4)=   0.000000  celldm(5)=   0.000000  celldm(6)=   0.000000

     crystal axes: (cart. coord. in units of alat)
               a(1) = (   1.000000   0.000000   0.000000 )  
               a(2) = (   0.000000   1.000000   0.000000 )  
               a(3) = (   0.000000   0.000000   1.000000 )  

     reciprocal axes: (cart. coord. in units 2 pi/alat)
               b(1) = (  1.000000  0.000000  0.000000 )  
               b(2) = (  0.000000  1.000000  0.000000 )  
               b(3) = (  0.000000  0.000000  1.000000 )  


     PseudoPot. # 1 for Zn read from file:
     /Users/behnamazizi/Downloads/core level shifts/pseudopotential/Zn.pbe-van.UPF
     MD5 check sum: e89cebcf7a22e388733959be9607aa2e
     Pseudo is Ultrasoft, Zval = 12.0
     Generated by new atomic code, or converted to UPF format
     Using radial grid of  869 points,  6 beta functions with: 
                l(1) =   0
                l(2) =   0
                l(3) =   1
                l(4) =   1
                l(5) =   2
                l(6) =   2
     Q(r) pseudized with  8 coefficients,  rinner =    0.800   0.800   0.800
                                                       0.800   0.800

     PseudoPot. # 2 for C  read from file:
     /Users/behnamazizi/Downloads/core level shifts/pseudopotential/C.pbe-rrkjus.UPF
     MD5 check sum: c9ac5a99bc85b198593446162950cd17
     Pseudo is Ultrasoft, Zval =  4.0
     Generated by new atomic code, or converted to UPF format
     Using radial grid of  627 points,  4 beta functions with: 
                l(1) =   0
                l(2) =   0
                l(3) =   1
                l(4) =   1
     Q(r) pseudized with 0 coefficients 


     PseudoPot. # 3 for N  read from file:
     /Users/behnamazizi/Downloads/core level shifts/pseudopotential/N.pbe-van_ak.UPF
     MD5 check sum: 090a72b4b4f32b788c2341547a991be6
     Pseudo is Ultrasoft, Zval =  5.0
     Generated by new atomic code, or converted to UPF format
     Using radial grid of  729 points,  4 beta functions with: 
                l(1) =   0
                l(2) =   0
                l(3) =   1
                l(4) =   1
     Q(r) pseudized with  8 coefficients,  rinner =    0.800   0.800   0.800


     PseudoPot. # 4 for H  read from file:
     /Users/behnamazizi/Downloads/core level shifts/pseudopotential/H.pbe-rrkjus.UPF
     MD5 check sum: 2d52a7f45632fd764c17cc6affed14c8
     Pseudo is Ultrasoft, Zval =  1.0
     Generated by new atomic code, or converted to UPF format
     Using radial grid of 1061 points,  2 beta functions with: 
                l(1) =   0
                l(2) =   0
     Q(r) pseudized with 0 coefficients 


     PseudoPot. # 5 for O  read from file:
     /Users/behnamazizi/Downloads/core level shifts/pseudopotential/O.pbe-rrkjus.UPF
     MD5 check sum: fadcf19ee70a498d3030e2e79cf929a4
     Pseudo is Ultrasoft, Zval =  6.0
     Generated by new atomic code, or converted to UPF format
     Using radial grid of 1269 points,  4 beta functions with: 
                l(1) =   0
                l(2) =   0
                l(3) =   1
                l(4) =   1
     Q(r) pseudized with 0 coefficients 


     PseudoPot. # 6 for C  read from file:
     /Users/behnamazizi/Downloads/core level shifts/pseudopotential/C.star1s-pbe-rrkjus.UPF
     MD5 check sum: d6a66a864dce4990f98654a67f8dd415
     Pseudo is Ultrasoft, Zval =  5.0
     Generated by new atomic code, or converted to UPF format
     Using radial grid of 1073 points,  4 beta functions with: 
                l(1) =   0
                l(2) =   0
                l(3) =   1
                l(4) =   1
     Q(r) pseudized with 0 coefficients 


     PseudoPot. # 7 for N  read from file:
     /Users/behnamazizi/Downloads/core level shifts/pseudopotential/N.star1s-pbe-van.UPF
     MD5 check sum: ee94cefccf6368fcf05291e556b07c24
     Pseudo is Ultrasoft, Zval =  6.0
     Generated by new atomic code, or converted to UPF format
     Using radial grid of  729 points,  4 beta functions with: 
                l(1) =   0
                l(2) =   0
                l(3) =   1
                l(4) =   1
     Q(r) pseudized with  8 coefficients,  rinner =    0.800   0.800   0.800


     atomic species   valence    mass     pseudopotential
     Zn               12.00    65.38000     Zn( 1.00)
     C                 4.00    12.01100     C ( 1.00)
     N                 5.00    14.00700     N ( 1.00)
     H                 1.00     1.00800     H ( 1.00)
     O                 6.00    15.99900     O ( 1.00)
     Cs                5.00    12.01100     C ( 1.00)
     Ns                6.00    14.00700     N ( 1.00)

     No symmetry found



   Cartesian axes

     site n.     atom                  positions (alat units)
         1        Zn     tau(   1) = (   0.0025328   0.0005504  -0.0015576  )
         2        C      tau(   2) = (   0.1633472  -0.0264880  -0.0103304  )
         3        C      tau(   3) = (   0.1633392   0.0274584  -0.0106892  )
         4        C      tau(   4) = (   0.1114712  -0.0440784   0.0103852  )
         5        C      tau(   5) = (   0.1114592   0.0453100   0.0097976  )
         6        C      tau(   6) = (   0.0976600  -0.0951800   0.0168488  )
         7        C      tau(   7) = (   0.2239368  -0.1816540   0.0238348  )
         8        C      tau(   8) = (   0.2071680  -0.2281228  -0.0021444  )
         9        C      tau(   9) = (   0.1891048  -0.1382084   0.0291728  )
        10        C      tau(  10) = (   0.1556172  -0.2312204  -0.0231824  )
        11        C      tau(  11) = (   0.1366876  -0.1406956   0.0084092  )
        12        C      tau(  12) = (   0.1205972  -0.1879804  -0.0180896  )
        13        C      tau(  13) = (   0.0976968   0.0964744   0.0158600  )
        14        C      tau(  14) = (   0.2242576   0.1823816   0.0233424  )
        15        C      tau(  15) = (   0.2078072   0.2289540  -0.0026396  )
        16        C      tau(  16) = (   0.1892176   0.1390976   0.0284556  )
        17        C      tau(  17) = (   0.1563660   0.2322992  -0.0239224  )
        18        C      tau(  18) = (   0.1369052   0.1418236   0.0074508  )
        19        C      tau(  19) = (   0.1211300   0.1891984  -0.0190636  )
        20        C      tau(  20) = (   0.0424868  -0.1082280   0.0309596  )
        21        C      tau(  21) = (   0.0425004   0.1096744   0.0298008  )
        22        C      tau(  22) = (   0.0269384  -0.1619144   0.0490416  )
        23        C      tau(  23) = (   0.0269264   0.1634608   0.0475640  )
        24        C      tau(  24) = (  -0.0267176  -0.1637248   0.0487672  )
        25        C      tau(  25) = (  -0.0267448   0.1652076   0.0474308  )
        26        C      tau(  26) = (  -0.0440976  -0.1112564   0.0304696  )
        27        C      tau(  27) = (  -0.0441088   0.1126312   0.0294512  )
        28        C      tau(  28) = (  -0.0940200  -0.0991432   0.0159824  )
        29        C      tau(  29) = (  -0.1231268  -0.1921704  -0.0119416  )
        30        C      tau(  30) = (  -0.1359988  -0.1424144   0.0118556  )
        31        C      tau(  31) = (  -0.1609036  -0.2330056  -0.0153700  )
        32        C      tau(  32) = (  -0.1884080  -0.1345776   0.0308068  )
        33        C      tau(  33) = (  -0.2122936  -0.2251132   0.0045728  )
        34        C      tau(  34) = (  -0.2261436  -0.1759864   0.0274416  )
        35        C      tau(  35) = (  -0.0940700   0.1003396   0.0152408  )
        36        C      tau(  36) = (  -0.1241800   0.1932072  -0.0121428  )
        37        C      tau(  37) = (  -0.1363584   0.1432888   0.0116204  )
        38        C      tau(  38) = (  -0.1623360   0.2337472  -0.0148936  )
        39        C      tau(  39) = (  -0.1884352   0.1349540   0.0312648  )
        40        C      tau(  40) = (  -0.2133916   0.2253660   0.0057292  )
        41        C      tau(  41) = (  -0.2265384   0.1760488   0.0285924  )
        42        C      tau(  42) = (  -0.1056508  -0.0433556   0.0028004  )
        43        C      tau(  43) = (  -0.1056032   0.0445124   0.0022904  )
        44        C      tau(  44) = (  -0.1487760  -0.0269444  -0.0238728  )
        45        C      tau(  45) = (  -0.1487640   0.0278656  -0.0241636  )
        46        N      tau(  46) = (   0.0786120   0.0007052   0.0251388  )
        47        N      tau(  47) = (   0.0013612  -0.0770756   0.0248260  )
        48        N      tau(  48) = (   0.0013780   0.0784676   0.0239308  )
        49        N      tau(  49) = (  -0.0748644   0.0006636   0.0215772  )
        50        H      tau(  50) = (   0.2340608  -0.2618552  -0.0057732  )
        51        H      tau(  51) = (  -0.2427816   0.2571036   0.0038104  )
        52        H      tau(  52) = (   0.2348600   0.2625764  -0.0060648  )
        53        H      tau(  53) = (  -0.2413984  -0.2570792   0.0021024  )
        54        H      tau(  54) = (   0.1961908  -0.0504856  -0.0249428  )
        55        H      tau(  55) = (   0.1961732   0.0512788  -0.0256176  )
        56        H      tau(  56) = (   0.0524660  -0.1950068   0.0601680  )
        57        H      tau(  57) = (   0.0524312   0.1966344   0.0584828  )
        58        H      tau(  58) = (  -0.0501448  -0.1983688   0.0597492  )
        59        H      tau(  59) = (  -0.0501664   0.1998784   0.0583140  )
        60        H      tau(  60) = (  -0.1795156  -0.0521564  -0.0409880  )
        61        H      tau(  61) = (  -0.1795376   0.0529244  -0.0414436  )
        62        H      tau(  62) = (   0.2638396  -0.1794828   0.0404560  )
        63        H      tau(  63) = (   0.2026920  -0.1032928   0.0508068  )
        64        H      tau(  64) = (   0.1425664  -0.2673336  -0.0432112  )
        65        H      tau(  65) = (   0.0808184  -0.1915252  -0.0348188  )
        66        H      tau(  66) = (   0.2640624   0.1800048   0.0401692  )
        67        H      tau(  67) = (   0.2025552   0.1041192   0.0501436  )
        68        H      tau(  68) = (   0.1435652   0.2685072  -0.0439372  )
        69        H      tau(  69) = (   0.0814360   0.1929404  -0.0359480  )
        70        H      tau(  70) = (  -0.0837312  -0.1993364  -0.0284468  )
        71        H      tau(  71) = (  -0.1501328  -0.2708500  -0.0335412  )
        72        H      tau(  72) = (  -0.1997444  -0.0970736   0.0491532  )
        73        H      tau(  73) = (  -0.2661604  -0.1701420   0.0427948  )
        74        H      tau(  74) = (  -0.0850476   0.2007308  -0.0291076  )
        75        H      tau(  75) = (  -0.1521176   0.2717496  -0.0330412  )
        76        H      tau(  76) = (  -0.1992012   0.0972972   0.0496560  )
        77        H      tau(  77) = (  -0.2662796   0.1698132   0.0445024  )
        78        O      tau(  78) = (  -0.0658932   0.0008704   0.0749560  )
        79        H      tau(  79) = (  -0.1010828   0.0051196   0.0930300  )
        80        O      tau(  80) = (   0.0651192   0.0010092   0.0774752  )
        81        H      tau(  81) = (   0.0987888   0.0025936   0.0986636  )

     number of k points=     1  Marzari-Vanderbilt smearing, width (Ry)=  0.0200
                       cart. coord. in units 2pi/alat
        k(    1) = (   0.0000000   0.0000000   0.0000000), wk =   2.0000000

     Dense  grid:  2149751 G-vectors     FFT dimensions: ( 216, 216, 216)

     Smooth grid:  1170255 G-vectors     FFT dimensions: ( 180, 180, 180)

     Estimated max dynamical RAM per process >       2.87 GB

     Estimated total dynamical RAM >      11.46 GB

     Initial potential from superposition of free atoms

     starting charge     247.1114, renormalised to     250.0000

     negative rho (up, down):  3.672E-02 0.000E+00
     Starting wfcs are  236 randomized atomic wfcs

     total cpu time spent up to now is       43.9 secs

     Self-consistent Calculation

     iteration #  1     ecut=    30.00 Ry     beta= 0.20
     Davidson diagonalization with overlap
     ethr =  1.00E-02,  avg # of iterations =  5.0

     negative rho (up, down):  1.332E-02 0.000E+00

     total cpu time spent up to now is      166.1 secs

     total energy              =    -803.44941719 Ry
     estimated scf accuracy    <     141.07581865 Ry

     iteration #  2     ecut=    30.00 Ry     beta= 0.20
     Davidson diagonalization with overlap
     ethr =  1.00E-02,  avg # of iterations =  2.0

     negative rho (up, down):  5.574E-03 0.000E+00

     total cpu time spent up to now is      262.6 secs

     total energy              =    -808.94480279 Ry
     estimated scf accuracy    <      13.31963540 Ry

     iteration #  3     ecut=    30.00 Ry     beta= 0.20
     Davidson diagonalization with overlap
     ethr =  5.33E-03,  avg # of iterations =  1.0

     negative rho (up, down):  9.871E-03 0.000E+00

     total cpu time spent up to now is      353.3 secs

     total energy              =    -804.55733400 Ry
     estimated scf accuracy    <      10.61289585 Ry

     iteration #  4     ecut=    30.00 Ry     beta= 0.20
     Davidson diagonalization with overlap
     ethr =  4.25E-03,  avg # of iterations =  2.0

     negative rho (up, down):  3.974E-03 0.000E+00

     total cpu time spent up to now is      447.1 secs

     total energy              =    -805.38534974 Ry
     estimated scf accuracy    <       1.98683438 Ry

     iteration #  5     ecut=    30.00 Ry     beta= 0.20
     Davidson diagonalization with overlap
     ethr =  7.95E-04,  avg # of iterations = 11.0

     negative rho (up, down):  2.371E-03 0.000E+00

     total cpu time spent up to now is      568.9 secs

     total energy              =    -806.05451016 Ry
     estimated scf accuracy    <       1.81428133 Ry

     iteration #  6     ecut=    30.00 Ry     beta= 0.20
     Davidson diagonalization with overlap
     ethr =  7.26E-04,  avg # of iterations =  2.0

     negative rho (up, down):  3.123E-04 0.000E+00

     total cpu time spent up to now is      660.7 secs

     total energy              =    -805.74524140 Ry
     estimated scf accuracy    <       1.72489474 Ry

     iteration #  7     ecut=    30.00 Ry     beta= 0.20
     Davidson diagonalization with overlap
     ethr =  6.90E-04,  avg # of iterations =  2.0

     negative rho (up, down):  3.117E-02 0.000E+00

     total cpu time spent up to now is      754.6 secs

     total energy              =    -805.54387421 Ry
     estimated scf accuracy    <       0.99304226 Ry

     iteration #  8     ecut=    30.00 Ry     beta= 0.20
     Davidson diagonalization with overlap
     c_bands:  4 eigenvalues not converged
     ethr =  3.97E-04,  avg # of iterations = 20.0

     negative rho (up, down):  1.300E-02 0.000E+00

     total cpu time spent up to now is      871.3 secs

     total energy              =    -805.62409122 Ry
     estimated scf accuracy    <       0.64602430 Ry

     iteration #  9     ecut=    30.00 Ry     beta= 0.20
     Davidson diagonalization with overlap
     ethr =  2.58E-04,  avg # of iterations = 10.0

     negative rho (up, down):  3.251E-01 0.000E+00

     total cpu time spent up to now is      966.3 secs

     total energy              =    -805.46130282 Ry
     estimated scf accuracy    <       0.56836994 Ry

     iteration # 10     ecut=    30.00 Ry     beta= 0.20
     Davidson diagonalization with overlap
     ethr =  2.27E-04,  avg # of iterations =  2.0

     negative rho (up, down):  4.426E-01 0.000E+00

     total cpu time spent up to now is     1066.0 secs

     total energy              =    -805.49986949 Ry
     estimated scf accuracy    <       0.29675481 Ry

     iteration # 11     ecut=    30.00 Ry     beta= 0.20
     Davidson diagonalization with overlap
     c_bands:  4 eigenvalues not converged
     ethr =  1.19E-04,  avg # of iterations = 20.0

     negative rho (up, down):  2.284E-01 0.000E+00

     total cpu time spent up to now is     1190.4 secs

     total energy              =    -805.53633431 Ry
     estimated scf accuracy    <       0.28747291 Ry

     iteration # 12     ecut=    30.00 Ry     beta= 0.20
     Davidson diagonalization with overlap
     c_bands:  2 eigenvalues not converged
     ethr =  1.15E-04,  avg # of iterations = 20.0

     negative rho (up, down):  1.788E-01 0.000E+00

     total cpu time spent up to now is     1314.1 secs

     total energy              =    -805.50827106 Ry
     estimated scf accuracy    <       0.23756988 Ry

     iteration # 13     ecut=    30.00 Ry     beta= 0.20
     Davidson diagonalization with overlap
     ethr =  9.50E-05,  avg # of iterations =  1.0

     negative rho (up, down):  4.720E-01 0.000E+00

     total cpu time spent up to now is     1406.4 secs

     total energy              =    -805.49132187 Ry
     estimated scf accuracy    <       0.16986495 Ry

     iteration # 14     ecut=    30.00 Ry     beta= 0.20
     Davidson diagonalization with overlap
     ethr =  6.79E-05,  avg # of iterations =  2.0

     negative rho (up, down):  4.456E-01 0.000E+00

     total cpu time spent up to now is     1502.7 secs

     total energy              =    -805.45772185 Ry
     estimated scf accuracy    <       0.15219604 Ry

     iteration # 15     ecut=    30.00 Ry     beta= 0.20
     Davidson diagonalization with overlap
     c_bands:  3 eigenvalues not converged
     ethr =  6.09E-05,  avg # of iterations = 40.0

     negative rho (up, down):  6.367E-01 0.000E+00

     total cpu time spent up to now is     1673.4 secs

     total energy              =    -805.45068333 Ry
     estimated scf accuracy    <       0.10496230 Ry

     iteration # 16     ecut=    30.00 Ry     beta= 0.20
     Davidson diagonalization with overlap
     c_bands:  1 eigenvalues not converged
     ethr =  4.20E-05,  avg # of iterations = 20.0

     negative rho (up, down):  5.362E-01 0.000E+00

     total cpu time spent up to now is     1779.2 secs

     total energy              =    -805.42577188 Ry
     estimated scf accuracy    <       0.07867741 Ry

     iteration # 17     ecut=    30.00 Ry     beta= 0.20
     Davidson diagonalization with overlap
     c_bands:  3 eigenvalues not converged
     ethr =  3.15E-05,  avg # of iterations = 20.0

     negative rho (up, down):  5.668E-01 0.000E+00

     total cpu time spent up to now is     1897.2 secs

     total energy              =    -805.42079400 Ry
     estimated scf accuracy    <       0.03343600 Ry

     iteration # 18     ecut=    30.00 Ry     beta= 0.20
     Davidson diagonalization with overlap
     c_bands:  3 eigenvalues not converged
     ethr =  1.34E-05,  avg # of iterations = 20.0

     negative rho (up, down):  4.028E-01 0.000E+00

     total cpu time spent up to now is     2029.6 secs

     total energy              =    -805.42375234 Ry
     estimated scf accuracy    <       0.01961551 Ry

     iteration # 19     ecut=    30.00 Ry     beta= 0.20
     Davidson diagonalization with overlap
     c_bands:  2 eigenvalues not converged
     ethr =  7.85E-06,  avg # of iterations = 20.0

     negative rho (up, down):  2.356E-01 0.000E+00

     total cpu time spent up to now is     2144.5 secs

     total energy              =    -805.41918757 Ry
     estimated scf accuracy    <       0.01228761 Ry

     iteration # 20     ecut=    30.00 Ry     beta= 0.20
     Davidson diagonalization with overlap
     c_bands:  4 eigenvalues not converged
     ethr =  4.92E-06,  avg # of iterations = 20.0

     negative rho (up, down):  2.317E-01 0.000E+00

     total cpu time spent up to now is     2288.6 secs

     total energy              =    -805.42318477 Ry
     estimated scf accuracy    <       0.00406255 Ry

     iteration # 21     ecut=    30.00 Ry     beta= 0.20
     Davidson diagonalization with overlap
     c_bands:  1 eigenvalues not converged
     ethr =  1.63E-06,  avg # of iterations = 20.0

     negative rho (up, down):  2.246E-01 0.000E+00

     total cpu time spent up to now is     2430.4 secs

     total energy              =    -805.42458911 Ry
     estimated scf accuracy    <       0.00397411 Ry

     iteration # 22     ecut=    30.00 Ry     beta= 0.20
     Davidson diagonalization with overlap
     ethr =  1.59E-06,  avg # of iterations =  2.0

     negative rho (up, down):  1.218E-01 0.000E+00

     total cpu time spent up to now is     2524.2 secs

     total energy              =    -805.42221108 Ry
     estimated scf accuracy    <       0.00373790 Ry

     iteration # 23     ecut=    30.00 Ry     beta= 0.20
     Davidson diagonalization with overlap
     ethr =  1.50E-06,  avg # of iterations = 22.0

     negative rho (up, down):  1.203E-01 0.000E+00

     total cpu time spent up to now is     2703.5 secs

     total energy              =    -805.42310181 Ry
     estimated scf accuracy    <       0.00164922 Ry

     iteration # 24     ecut=    30.00 Ry     beta= 0.20
     Davidson diagonalization with overlap
     ethr =  6.60E-07,  avg # of iterations =  1.0

     negative rho (up, down):  9.977E-02 0.000E+00

     total cpu time spent up to now is     2794.9 secs

     total energy              =    -805.42269911 Ry
     estimated scf accuracy    <       0.00114929 Ry

     iteration # 25     ecut=    30.00 Ry     beta= 0.20
     Davidson diagonalization with overlap
     c_bands:  2 eigenvalues not converged
     ethr =  4.60E-07,  avg # of iterations = 20.0

     negative rho (up, down):  9.366E-02 0.000E+00

     total cpu time spent up to now is     2913.5 secs

     total energy              =    -805.42293610 Ry
     estimated scf accuracy    <       0.00037357 Ry

     iteration # 26     ecut=    30.00 Ry     beta= 0.20
     Davidson diagonalization with overlap
     c_bands:  2 eigenvalues not converged
     ethr =  1.49E-07,  avg # of iterations = 20.0

     negative rho (up, down):  8.242E-02 0.000E+00

     total cpu time spent up to now is     3029.9 secs

     total energy              =    -805.42285894 Ry
     estimated scf accuracy    <       0.00021469 Ry

     iteration # 27     ecut=    30.00 Ry     beta= 0.20
     Davidson diagonalization with overlap
     c_bands:  1 eigenvalues not converged
     ethr =  8.59E-08,  avg # of iterations = 20.0

     negative rho (up, down):  7.689E-02 0.000E+00

     total cpu time spent up to now is     3143.5 secs

     total energy              =    -805.42286603 Ry
     estimated scf accuracy    <       0.00006900 Ry

     iteration # 28     ecut=    30.00 Ry     beta= 0.20
     Davidson diagonalization with overlap
     c_bands:  3 eigenvalues not converged
     ethr =  2.76E-08,  avg # of iterations = 20.0

     negative rho (up, down):  7.617E-02 0.000E+00

     total cpu time spent up to now is     3289.8 secs

     total energy              =    -805.42289950 Ry
     estimated scf accuracy    <       0.00006107 Ry

     iteration # 29     ecut=    30.00 Ry     beta= 0.20
     Davidson diagonalization with overlap
     c_bands:  1 eigenvalues not converged
     ethr =  2.44E-08,  avg # of iterations = 20.0

     negative rho (up, down):  7.490E-02 0.000E+00

     total cpu time spent up to now is     3391.3 secs

     total energy              =    -805.42288563 Ry
     estimated scf accuracy    <       0.00004239 Ry

     iteration # 30     ecut=    30.00 Ry     beta= 0.20
     Davidson diagonalization with overlap
     c_bands:  1 eigenvalues not converged
     ethr =  1.70E-08,  avg # of iterations = 20.0

     negative rho (up, down):  7.453E-02 0.000E+00

     total cpu time spent up to now is     3523.8 secs

     total energy              =    -805.42290083 Ry
     estimated scf accuracy    <       0.00003354 Ry

     iteration # 31     ecut=    30.00 Ry     beta= 0.20
     Davidson diagonalization with overlap
     c_bands:  1 eigenvalues not converged
     ethr =  1.34E-08,  avg # of iterations = 20.0

     negative rho (up, down):  7.459E-02 0.000E+00

     total cpu time spent up to now is     3627.5 secs

     total energy              =    -805.42289458 Ry
     estimated scf accuracy    <       0.00002510 Ry

     iteration # 32     ecut=    30.00 Ry     beta= 0.20
     Davidson diagonalization with overlap
     c_bands:  1 eigenvalues not converged
     ethr =  1.00E-08,  avg # of iterations = 20.0

     negative rho (up, down):  7.489E-02 0.000E+00

     total cpu time spent up to now is     3733.4 secs

     total energy              =    -805.42289489 Ry
     estimated scf accuracy    <       0.00001132 Ry

     iteration # 33     ecut=    30.00 Ry     beta= 0.20
     Davidson diagonalization with overlap
     c_bands:  1 eigenvalues not converged
     ethr =  4.53E-09,  avg # of iterations = 20.0

     negative rho (up, down):  7.484E-02 0.000E+00

     total cpu time spent up to now is     3846.4 secs

     total energy              =    -805.42289614 Ry
     estimated scf accuracy    <       0.00000849 Ry

     iteration # 34     ecut=    30.00 Ry     beta= 0.20
     Davidson diagonalization with overlap
     c_bands:  1 eigenvalues not converged
     ethr =  3.40E-09,  avg # of iterations = 20.0

     negative rho (up, down):  7.491E-02 0.000E+00

     total cpu time spent up to now is     3947.8 secs

     total energy              =    -805.42289361 Ry
     estimated scf accuracy    <       0.00000653 Ry

     iteration # 35     ecut=    30.00 Ry     beta= 0.20
     Davidson diagonalization with overlap
     ethr =  2.61E-09,  avg # of iterations =  7.0

     negative rho (up, down):  7.540E-02 0.000E+00

     total cpu time spent up to now is     4033.4 secs

     End of self-consistent calculation

          k = 0.0000 0.0000 0.0000 (146250 PWs)   bands (ev):

   -28.7565 -28.7076 -23.8747 -23.8404 -23.4760 -23.0239 -21.3334 -21.2230
   -21.2209 -21.1813 -20.3734 -19.9171 -19.7891 -19.5242 -19.4047 -19.1046
   -18.8669 -18.7095 -18.3720 -18.3413 -18.3028 -18.2873 -18.2553 -18.0855
   -17.9566 -17.4839 -17.4551 -16.1258 -15.9539 -15.6847 -15.5328 -15.2824
   -15.0261 -14.9039 -14.8446 -14.7421 -14.6699 -14.5654 -14.4942 -14.4748
   -14.1408 -13.8498 -13.6167 -13.5858 -13.3028 -13.2347 -12.8261 -12.7192
   -12.6024 -12.5680 -12.4439 -12.3228 -12.2200 -12.1572 -12.1243 -11.9681
   -11.7862 -11.2143 -11.1948 -11.1337 -11.0269 -10.9689 -10.9656 -10.9525
   -10.8665 -10.8521 -10.8017 -10.7747 -10.6793 -10.6255 -10.5874 -10.2983
   -10.2078 -10.1919 -10.1551 -10.1109 -10.0965 -10.0010  -9.9620  -9.9114
    -9.8413  -9.7642  -9.7521  -9.5888  -9.4867  -9.1054  -8.9966  -8.9874
    -8.9577  -8.8711  -8.8336  -8.7399  -8.6761  -8.5142  -8.4450  -8.3979
    -8.2640  -8.2532  -8.1729  -8.1490  -8.1304  -8.0874  -8.0844  -8.0562
    -7.9110  -7.6257  -7.4965  -7.3976  -7.1130  -6.9831  -6.9736  -6.5389
    -6.2741  -6.2618  -6.2343  -6.2095  -6.1381  -6.0045  -5.9785  -5.8708
    -5.8501  -5.7422  -4.9535  -4.8435  -3.0886  -2.8757  -2.3809  -1.9122
    -1.7140  -1.5678  -1.1912  -1.1799  -1.1731  -1.1447  -1.1070  -1.0083
    -0.8382  -0.6661  -0.6598  -0.3632  -0.3562  -0.3181  -0.1450  -0.1246
    -0.1199  -0.1102  -0.0145   0.0134   0.0443   0.1152

     the Fermi energy is    -2.9520 ev

!    total energy              =    -805.42289425 Ry
     estimated scf accuracy    <       0.00000061 Ry
     smearing contrib. (-TS)   =      -0.00909970 Ry
     internal energy E=F+TS    =    -805.41379456 Ry

     The total energy is F=E-TS. E is the sum of the following terms:
     one-electron contribution =  -14530.09876762 Ry
     hartree contribution      =    7299.17597195 Ry
     xc contribution           =    -228.18613450 Ry
     ewald contribution        =    6653.69513560 Ry

     convergence has been achieved in  35 iterations

     Writing all to output data dir /Users/behnamazizi/Downloads/core level shifts/twistedO2/output/restart_data/twistedo2_cls.save/ :
     XML data file, charge density, pseudopotentials, collected wavefunctions

     init_run     :     28.15s CPU     43.50s WALL (       1 calls)
     electrons    :   2550.07s CPU   3989.84s WALL (       1 calls)

     Called by init_run:
     wfcinit      :     19.11s CPU     27.47s WALL (       1 calls)
     potinit      :      2.69s CPU      4.53s WALL (       1 calls)
     hinit0       :      1.55s CPU      2.42s WALL (       1 calls)

     Called by electrons:
     c_bands      :   1382.57s CPU   2033.22s WALL (      35 calls)
     sum_band     :    375.02s CPU    723.84s WALL (      35 calls)
     v_of_rho     :     76.57s CPU    110.46s WALL (      36 calls)
     newd         :    129.17s CPU    269.49s WALL (      36 calls)
     mix_rho      :    579.03s CPU    840.75s WALL (      35 calls)

     Called by c_bands:
     init_us_2    :      9.52s CPU     24.42s WALL (      71 calls)
     regterg      :   1368.09s CPU   2003.86s WALL (      37 calls)

     Called by *egterg:
     rdiaghg      :     20.84s CPU     31.01s WALL (     529 calls)
     h_psi        :   1081.29s CPU   1571.52s WALL (     530 calls)
     s_psi        :     65.90s CPU     97.14s WALL (     530 calls)
     g_psi        :      1.39s CPU      2.15s WALL (     492 calls)

     Called by h_psi:
     h_psi:calbec :     95.11s CPU    140.26s WALL (     530 calls)
     vloc_psi     :    918.77s CPU   1331.54s WALL (     530 calls)
                                        0.00s GPU  (     530 calls)
     add_vuspsi   :     65.35s CPU     96.70s WALL (     530 calls)

     General routines
     calbec       :    119.10s CPU    175.78s WALL (     565 calls)
     fft          :     78.44s CPU    111.61s WALL (     394 calls)
     ffts         :    445.34s CPU    631.36s WALL (    4253 calls)
     fftw         :   1002.87s CPU   1446.32s WALL (   17993 calls)
     interpolate  :     11.61s CPU     16.54s WALL (      36 calls)

     Parallel routines

     PWSCF        :  42m59.11s CPU      1h 7m WALL


   This run was terminated on:  22:10:24   1Aug2026            

=------------------------------------------------------------------------------=
   JOB DONE.
=------------------------------------------------------------------------------=
