77

Zn         0.00000        0.00000        0.00000
C          4.23251       -0.70660       -0.15958
C          4.24128        0.65513       -0.23747
C          2.86559       -1.11186        0.03353
C          2.88065        1.09491       -0.07367
C          2.43355       -2.45621        0.09961
C          5.58465       -4.42266        0.91137
C          5.54358       -5.42470       -0.06165
C          4.56276       -3.47423        0.98744
C          4.45551       -5.48826       -0.93919
C          3.48004       -3.50639        0.08979
C          3.43217       -4.54195       -0.86443
C          2.46972        2.44784       -0.07350
C          5.61996        4.44296        0.67404
C          5.49575        5.51209       -0.21732
C          4.63605        3.45574        0.72865
C          4.37815        5.58503       -1.05369
C          3.51968        3.49522       -0.12930
C          3.41039        4.57866       -1.02485
C          1.08395       -2.87012        0.11477
C          1.12170        2.87225        0.01649
C          0.65393       -4.22161        0.35971
C          0.70933        4.22643        0.28497
C         -0.70995       -4.22450        0.30103
C         -0.65430        4.22383        0.34387
C         -1.12238       -2.87223        0.02249
C         -1.08422        2.87041        0.10780
C         -2.47121       -2.44861       -0.07068
C         -3.40252       -4.58965       -1.00921
C         -3.51979       -3.49725       -0.12501
C         -4.36696       -5.59930       -1.03263
C         -4.64144       -3.45291        0.72587
C         -5.49117       -5.51993       -0.20565
C         -5.62363       -4.44191        0.67332
C         -2.43373        2.45593        0.09383
C         -3.42592        4.53680       -0.88390
C         -3.47810        3.50782        0.07703
C         -4.44137        5.49126       -0.96007
C         -4.55949        3.48729        0.97640
C         -5.52716        5.44081       -0.07925
C         -5.57467        4.44285        0.89773
C         -2.88244       -1.09560       -0.07178
C         -2.86625        1.11160        0.03350
C         -4.24349       -0.65489       -0.23258
C         -4.23379        0.70688       -0.15579
N          2.05173       -0.00042        0.07751
N         -0.01419       -2.05599       -0.07012
N          0.01356        2.05544       -0.07098
N         -2.05275       -0.00042        0.07751
H          6.25633        6.29519       -0.24500
H         -6.24980       -6.30500       -0.23002
H          6.34881       -6.15646       -0.14459
H         -6.32642        6.17887       -0.16315
H          5.07286       -1.37689       -0.30113
H          5.08767        1.29354       -0.46842
H          1.31167       -5.05613        0.58085
H          1.37684        5.06733        0.44152
H         -1.37712       -5.06435        0.46409
H         -1.31202        5.05989        0.55894
H         -5.09072       -1.29252       -0.46188
H         -5.07426        1.37764       -0.29516
H          6.41734       -4.37755        1.61601
H          4.59589       -2.69277        1.74869
H          4.41809       -6.28686       -1.68160
H          2.59120       -4.57556       -1.55706
H          6.47861        4.38671        1.34547
H          4.71658        2.64635        1.45558
H          4.23808        6.44125       -1.71473
H          2.53852        4.64947       -1.67601
H         -2.52561       -4.66608       -1.65318
H         -4.21842       -6.46318       -1.68165
H         -4.72762       -2.63831        1.44617
H         -6.48739       -4.38034        1.33786
H         -2.58631        4.55950       -1.57902
H         -4.40026        6.28611       -1.70618
H         -4.59631        2.71007        1.74179
H         -6.40636        4.40718        1.60405
