
     Program PWSCF v.7.5 starts on 31Jul2026 at 23:24:36 

     This program is part of the open-source Quantum ESPRESSO suite
     for quantum simulation of materials; please cite
         "P. Giannozzi et al., J. Phys.:Condens. Matter 21 395502 (2009);
         "P. Giannozzi et al., J. Phys.:Condens. Matter 29 465901 (2017);
         "P. Giannozzi et al., J. Chem. Phys. 152 154105 (2020);
          URL http://www.quantum-espresso.org", 
     in publications or presentations arising from this work. More details at
     http://www.quantum-espresso.org/quote

     Parallel version (MPI), running on     4 processors

     MPI processes distributed on     1 nodes
     0 MiB available memory on the printing compute node when the environment starts

     Reading input from planar.scf.in

     Current dimensions of program PWSCF are:
     Max number of different atomic species (ntypx) = 10
     Max number of k-points (npk) =  40000
     Max angular momentum in pseudopotentials (lmaxx) =  4
     file C.pbe-rrkjus.UPF: wavefunction(s)  2S 2P renormalized
     file H.pbe-rrkjus.UPF: wavefunction(s)  1S renormalized

     IMPORTANT: XC functional enforced from input :
     Exchange-correlation= PBE
                           (   1   4   3   4   0   0   0)
     Any further DFT definition will be discarded
     Please, verify this is what you really want


     gamma-point specific algorithms are used

     R & G space division:  proc/nbgrp/npool/nimage =       4
     Subspace diagonalization in iterative solution of the eigenvalue problem:
     a serial algorithm will be used


     Parallelization info
     --------------------
     sticks:   dense  smooth     PW     G-vecs:    dense   smooth      PW
     Min        7986    5331   1333              1074872   585126   73123
     Max        7989    5334   1336              1074881   585128   73126
     Sum       31949   21329   5337              4299501  2340509  292499

     Using Slab Decomposition



     bravais-lattice index     =            1
     lattice parameter (alat)  =      47.2432  a.u.
     unit-cell volume          =  105442.7265 (a.u.)^3
     number of atoms/cell      =           77
     number of atomic types    =            6
     number of electrons       =       236.00
     number of Kohn-Sham states=          142
     kinetic-energy cutoff     =      30.0000  Ry
     charge density cutoff     =     180.0000  Ry
     scf convergence threshold =      1.0E-06
     mixing beta               =       0.2000
     number of iterations used =           20  local-TF  mixing
     Exchange-correlation= PBE
                           (   1   4   3   4   0   0   0)
     Assuming isolated system, Martyna-Tuckerman method


     celldm(1)=  47.243153  celldm(2)=   0.000000  celldm(3)=   0.000000
     celldm(4)=   0.000000  celldm(5)=   0.000000  celldm(6)=   0.000000

     crystal axes: (cart. coord. in units of alat)
               a(1) = (   1.000000   0.000000   0.000000 )  
               a(2) = (   0.000000   1.000000   0.000000 )  
               a(3) = (   0.000000   0.000000   1.000000 )  

     reciprocal axes: (cart. coord. in units 2 pi/alat)
               b(1) = (  1.000000  0.000000  0.000000 )  
               b(2) = (  0.000000  1.000000  0.000000 )  
               b(3) = (  0.000000  0.000000  1.000000 )  


     PseudoPot. # 1 for Zn read from file:
     /Users/behnamazizi/Documents/predoc exam/planar_cls/pseudo/Zn.pbe-van.UPF
     MD5 check sum: e89cebcf7a22e388733959be9607aa2e
     Pseudo is Ultrasoft, Zval = 12.0
     Generated by new atomic code, or converted to UPF format
     Using radial grid of  869 points,  6 beta functions with: 
                l(1) =   0
                l(2) =   0
                l(3) =   1
                l(4) =   1
                l(5) =   2
                l(6) =   2
     Q(r) pseudized with  8 coefficients,  rinner =    0.800   0.800   0.800
                                                       0.800   0.800

     PseudoPot. # 2 for C  read from file:
     /Users/behnamazizi/Documents/predoc exam/planar_cls/pseudo/C.pbe-rrkjus.UPF
     MD5 check sum: c9ac5a99bc85b198593446162950cd17
     Pseudo is Ultrasoft, Zval =  4.0
     Generated by new atomic code, or converted to UPF format
     Using radial grid of  627 points,  4 beta functions with: 
                l(1) =   0
                l(2) =   0
                l(3) =   1
                l(4) =   1
     Q(r) pseudized with 0 coefficients 


     PseudoPot. # 3 for N  read from file:
     /Users/behnamazizi/Documents/predoc exam/planar_cls/pseudo/N.pbe-van_ak.UPF
     MD5 check sum: 090a72b4b4f32b788c2341547a991be6
     Pseudo is Ultrasoft, Zval =  5.0
     Generated by new atomic code, or converted to UPF format
     Using radial grid of  729 points,  4 beta functions with: 
                l(1) =   0
                l(2) =   0
                l(3) =   1
                l(4) =   1
     Q(r) pseudized with  8 coefficients,  rinner =    0.800   0.800   0.800


     PseudoPot. # 4 for H  read from file:
     /Users/behnamazizi/Documents/predoc exam/planar_cls/pseudo/H.pbe-rrkjus.UPF
     MD5 check sum: 2d52a7f45632fd764c17cc6affed14c8
     Pseudo is Ultrasoft, Zval =  1.0
     Generated by new atomic code, or converted to UPF format
     Using radial grid of 1061 points,  2 beta functions with: 
                l(1) =   0
                l(2) =   0
     Q(r) pseudized with 0 coefficients 


     PseudoPot. # 5 for C  read from file:
     /Users/behnamazizi/Documents/predoc exam/planar_cls/pseudo/C.star1s-pbe-rrkjus.UPF
     MD5 check sum: d6a66a864dce4990f98654a67f8dd415
     Pseudo is Ultrasoft, Zval =  5.0
     Generated by new atomic code, or converted to UPF format
     Using radial grid of 1073 points,  4 beta functions with: 
                l(1) =   0
                l(2) =   0
                l(3) =   1
                l(4) =   1
     Q(r) pseudized with 0 coefficients 


     PseudoPot. # 6 for N  read from file:
     /Users/behnamazizi/Documents/predoc exam/planar_cls/pseudo/N.star1s-pbe-van.UPF
     MD5 check sum: ee94cefccf6368fcf05291e556b07c24
     Pseudo is Ultrasoft, Zval =  6.0
     Generated by new atomic code, or converted to UPF format
     Using radial grid of  729 points,  4 beta functions with: 
                l(1) =   0
                l(2) =   0
                l(3) =   1
                l(4) =   1
     Q(r) pseudized with  8 coefficients,  rinner =    0.800   0.800   0.800


     atomic species   valence    mass     pseudopotential
     Zn               12.00    65.38000     Zn( 1.00)
     C                 4.00    12.01100     C ( 1.00)
     N                 5.00    14.00700     N ( 1.00)
     H                 1.00     1.00800     H ( 1.00)
     Cs                5.00    12.01100     C ( 1.00)
     Ns                6.00    14.00700     N ( 1.00)

     No symmetry found



   Cartesian axes

     site n.     atom                  positions (alat units)
         1        Zn     tau(   1) = (   0.0000000   0.0000000   0.0000000  )
         2        C      tau(   2) = (   0.1693004  -0.0282640  -0.0063832  )
         3        C      tau(   3) = (   0.1696512   0.0262052  -0.0094988  )
         4        C      tau(   4) = (   0.1146236  -0.0444744   0.0013412  )
         5        C      tau(   5) = (   0.1152260   0.0437964  -0.0029468  )
         6        C      tau(   6) = (   0.0973420  -0.0982484   0.0039844  )
         7        C      tau(   7) = (   0.2233860  -0.1769064   0.0364548  )
         8        C      tau(   8) = (   0.2217432  -0.2169880  -0.0024660  )
         9        C      tau(   9) = (   0.1825104  -0.1389692   0.0394976  )
        10        C      tau(  10) = (   0.1782204  -0.2195304  -0.0375676  )
        11        C      tau(  11) = (   0.1392016  -0.1402556   0.0035916  )
        12        C      tau(  12) = (   0.1372868  -0.1816780  -0.0345772  )
        13        C      tau(  13) = (   0.0987888   0.0979136  -0.0029400  )
        14        C      tau(  14) = (   0.2247984   0.1777184   0.0269616  )
        15        C      tau(  15) = (   0.2198300   0.2204836  -0.0086928  )
        16        C      tau(  16) = (   0.1854420   0.1382296   0.0291460  )
        17        C      tau(  17) = (   0.1751260   0.2234012  -0.0421476  )
        18        C      tau(  18) = (   0.1407872   0.1398088  -0.0051720  )
        19        C      tau(  19) = (   0.1364156   0.1831464  -0.0409940  )
        20        C      tau(  20) = (   0.0433580  -0.1148048   0.0045908  )
        21        C      tau(  21) = (   0.0448680   0.1148900   0.0006596  )
        22        C      tau(  22) = (   0.0261572  -0.1688644   0.0143884  )
        23        C      tau(  23) = (   0.0283732   0.1690572   0.0113988  )
        24        C      tau(  24) = (  -0.0283980  -0.1689800   0.0120412  )
        25        C      tau(  25) = (  -0.0261720   0.1689532   0.0137548  )
        26        C      tau(  26) = (  -0.0448952  -0.1148892   0.0008996  )
        27        C      tau(  27) = (  -0.0433688   0.1148164   0.0043120  )
        28        C      tau(  28) = (  -0.0988484  -0.0979444  -0.0028272  )
        29        C      tau(  29) = (  -0.1361008  -0.1835860  -0.0403684  )
        30        C      tau(  30) = (  -0.1407916  -0.1398900  -0.0050004  )
        31        C      tau(  31) = (  -0.1746784  -0.2239720  -0.0413052  )
        32        C      tau(  32) = (  -0.1856576  -0.1381164   0.0290348  )
        33        C      tau(  33) = (  -0.2196468  -0.2207972  -0.0082260  )
        34        C      tau(  34) = (  -0.2249452  -0.1776764   0.0269328  )
        35        C      tau(  35) = (  -0.0973492   0.0982372   0.0037532  )
        36        C      tau(  36) = (  -0.1370368   0.1814720  -0.0353560  )
        37        C      tau(  37) = (  -0.1391240   0.1403128   0.0030812  )
        38        C      tau(  38) = (  -0.1776548   0.2196504  -0.0384028  )
        39        C      tau(  39) = (  -0.1823796   0.1394916   0.0390560  )
        40        C      tau(  40) = (  -0.2210864   0.2176324  -0.0031700  )
        41        C      tau(  41) = (  -0.2229868   0.1777140   0.0359092  )
        42        C      tau(  42) = (  -0.1152976  -0.0438240  -0.0028712  )
        43        C      tau(  43) = (  -0.1146500   0.0444640   0.0013400  )
        44        C      tau(  44) = (  -0.1697396  -0.0261956  -0.0093032  )
        45        C      tau(  45) = (  -0.1693516   0.0282752  -0.0062316  )
        46        N      tau(  46) = (   0.0820692  -0.0000168   0.0031004  )
        47        N      tau(  47) = (  -0.0005676  -0.0822396  -0.0028048  )
        48        N      tau(  48) = (   0.0005424   0.0822176  -0.0028392  )
        49        N      tau(  49) = (  -0.0821100  -0.0000168   0.0031004  )
        50        H      tau(  50) = (   0.2502532   0.2518076  -0.0098000  )
        51        H      tau(  51) = (  -0.2499920  -0.2522000  -0.0092008  )
        52        H      tau(  52) = (   0.2539524  -0.2462584  -0.0057836  )
        53        H      tau(  53) = (  -0.2530568   0.2471548  -0.0065260  )
        54        H      tau(  54) = (   0.2029144  -0.0550756  -0.0120452  )
        55        H      tau(  55) = (   0.2035068   0.0517416  -0.0187368  )
        56        H      tau(  56) = (   0.0524668  -0.2022452   0.0232340  )
        57        H      tau(  57) = (   0.0550736   0.2026932   0.0176608  )
        58        H      tau(  58) = (  -0.0550848  -0.2025740   0.0185636  )
        59        H      tau(  59) = (  -0.0524808   0.2023956   0.0223576  )
        60        H      tau(  60) = (  -0.2036288  -0.0517008  -0.0184752  )
        61        H      tau(  61) = (  -0.2029704   0.0551056  -0.0118064  )
        62        H      tau(  62) = (   0.2566936  -0.1751020   0.0646404  )
        63        H      tau(  63) = (   0.1838356  -0.1077108   0.0699476  )
        64        H      tau(  64) = (   0.1767236  -0.2514744  -0.0672640  )
        65        H      tau(  65) = (   0.1036480  -0.1830224  -0.0622824  )
        66        H      tau(  66) = (   0.2591444   0.1754684   0.0538188  )
        67        H      tau(  67) = (   0.1886632   0.1058540   0.0582232  )
        68        H      tau(  68) = (   0.1695232   0.2576500  -0.0685892  )
        69        H      tau(  69) = (   0.1015408   0.1859788  -0.0670404  )
        70        H      tau(  70) = (  -0.1010244  -0.1866432  -0.0661272  )
        71        H      tau(  71) = (  -0.1687368  -0.2585272  -0.0672660  )
        72        H      tau(  72) = (  -0.1891048  -0.1055324   0.0578468  )
        73        H      tau(  73) = (  -0.2594956  -0.1752136   0.0535144  )
        74        H      tau(  74) = (  -0.1034524   0.1823800  -0.0631608  )
        75        H      tau(  75) = (  -0.1760104   0.2514444  -0.0682472  )
        76        H      tau(  76) = (  -0.1838524   0.1084028   0.0696716  )
        77        H      tau(  77) = (  -0.2562544   0.1762872   0.0641620  )

     number of k points=     1  Marzari-Vanderbilt smearing, width (Ry)=  0.0200
                       cart. coord. in units 2pi/alat
        k(    1) = (   0.0000000   0.0000000   0.0000000), wk =   2.0000000

     Dense  grid:  2149751 G-vectors     FFT dimensions: ( 216, 216, 216)

     Smooth grid:  1170255 G-vectors     FFT dimensions: ( 180, 180, 180)

     Estimated max dynamical RAM per process >       2.83 GB

     Estimated total dynamical RAM >      11.33 GB

     Initial potential from superposition of free atoms

     starting charge     233.3038, renormalised to     236.0000

     negative rho (up, down):  3.523E-02 0.000E+00
     Starting wfcs are  226 randomized atomic wfcs

     total cpu time spent up to now is        9.9 secs

     Self-consistent Calculation

     iteration #  1     ecut=    30.00 Ry     beta= 0.20
     Davidson diagonalization with overlap
     ethr =  1.00E-02,  avg # of iterations =  5.0

     negative rho (up, down):  9.269E-03 0.000E+00

     total cpu time spent up to now is       38.2 secs

     total energy              =    -737.84736827 Ry
     estimated scf accuracy    <     136.42047760 Ry

     iteration #  2     ecut=    30.00 Ry     beta= 0.20
     Davidson diagonalization with overlap
     ethr =  1.00E-02,  avg # of iterations =  2.0

     negative rho (up, down):  3.048E-03 0.000E+00

     total cpu time spent up to now is       61.1 secs

     total energy              =    -743.20899622 Ry
     estimated scf accuracy    <      11.76274493 Ry

     iteration #  3     ecut=    30.00 Ry     beta= 0.20
     Davidson diagonalization with overlap
     ethr =  4.98E-03,  avg # of iterations =  1.0

     negative rho (up, down):  5.963E-03 0.000E+00

     total cpu time spent up to now is       83.5 secs

     total energy              =    -739.60261031 Ry
     estimated scf accuracy    <       9.17133437 Ry

     iteration #  4     ecut=    30.00 Ry     beta= 0.20
     Davidson diagonalization with overlap
     ethr =  3.89E-03,  avg # of iterations =  2.0

     negative rho (up, down):  3.551E-03 0.000E+00

     total cpu time spent up to now is      106.7 secs

     total energy              =    -739.80986489 Ry
     estimated scf accuracy    <       2.08886490 Ry

     iteration #  5     ecut=    30.00 Ry     beta= 0.20
     Davidson diagonalization with overlap
     ethr =  8.85E-04,  avg # of iterations =  7.0

     negative rho (up, down):  1.194E-03 0.000E+00

     total cpu time spent up to now is      135.2 secs

     total energy              =    -740.39519898 Ry
     estimated scf accuracy    <       1.51024147 Ry

     iteration #  6     ecut=    30.00 Ry     beta= 0.20
     Davidson diagonalization with overlap
     ethr =  6.40E-04,  avg # of iterations =  2.0

     negative rho (up, down):  1.792E-02 0.000E+00

     total cpu time spent up to now is      158.7 secs

     total energy              =    -740.01259107 Ry
     estimated scf accuracy    <       1.32387276 Ry

     iteration #  7     ecut=    30.00 Ry     beta= 0.20
     Davidson diagonalization with overlap
     ethr =  5.61E-04,  avg # of iterations =  4.0

     negative rho (up, down):  1.808E-01 0.000E+00

     total cpu time spent up to now is      182.5 secs

     total energy              =    -739.99476513 Ry
     estimated scf accuracy    <       0.62621200 Ry

     iteration #  8     ecut=    30.00 Ry     beta= 0.20
     Davidson diagonalization with overlap
     c_bands:  4 eigenvalues not converged
     ethr =  2.65E-04,  avg # of iterations = 20.0

     negative rho (up, down):  5.291E-03 0.000E+00

     total cpu time spent up to now is      214.9 secs

     total energy              =    -740.04568465 Ry
     estimated scf accuracy    <       0.51522768 Ry

     iteration #  9     ecut=    30.00 Ry     beta= 0.20
     Davidson diagonalization with overlap
     ethr =  2.18E-04,  avg # of iterations = 19.0

     negative rho (up, down):  6.571E-01 0.000E+00

     total cpu time spent up to now is      241.1 secs

     total energy              =    -739.95625271 Ry
     estimated scf accuracy    <       0.37125290 Ry

     iteration # 10     ecut=    30.00 Ry     beta= 0.20
     Davidson diagonalization with overlap
     ethr =  1.57E-04,  avg # of iterations =  5.0

     negative rho (up, down):  3.947E-01 0.000E+00

     total cpu time spent up to now is      267.3 secs

     total energy              =    -740.00535005 Ry
     estimated scf accuracy    <       0.22192519 Ry

     iteration # 11     ecut=    30.00 Ry     beta= 0.20
     Davidson diagonalization with overlap
     ethr =  9.40E-05,  avg # of iterations =  2.0

     negative rho (up, down):  4.053E-01 0.000E+00

     total cpu time spent up to now is      291.6 secs

     total energy              =    -739.98154398 Ry
     estimated scf accuracy    <       0.18771902 Ry

     iteration # 12     ecut=    30.00 Ry     beta= 0.20
     Davidson diagonalization with overlap
     c_bands:  2 eigenvalues not converged
     ethr =  7.95E-05,  avg # of iterations = 20.0

     negative rho (up, down):  5.453E-01 0.000E+00

     total cpu time spent up to now is      319.0 secs

     total energy              =    -739.98449082 Ry
     estimated scf accuracy    <       0.13777372 Ry

     iteration # 13     ecut=    30.00 Ry     beta= 0.20
     Davidson diagonalization with overlap
     c_bands:  3 eigenvalues not converged
     ethr =  5.84E-05,  avg # of iterations = 20.0

     negative rho (up, down):  3.310E-01 0.000E+00

     total cpu time spent up to now is      348.3 secs

     total energy              =    -739.94517426 Ry
     estimated scf accuracy    <       0.13564903 Ry

     iteration # 14     ecut=    30.00 Ry     beta= 0.20
     Davidson diagonalization with overlap
     ethr =  5.75E-05,  avg # of iterations =  2.0

     negative rho (up, down):  6.578E-01 0.000E+00

     total cpu time spent up to now is      372.7 secs

     total energy              =    -739.93437834 Ry
     estimated scf accuracy    <       0.07738115 Ry

     iteration # 15     ecut=    30.00 Ry     beta= 0.20
     Davidson diagonalization with overlap
     c_bands:  3 eigenvalues not converged
     ethr =  3.28E-05,  avg # of iterations = 20.0

     negative rho (up, down):  3.768E-01 0.000E+00

     total cpu time spent up to now is      402.3 secs

     total energy              =    -739.91197516 Ry
     estimated scf accuracy    <       0.05822155 Ry

     iteration # 16     ecut=    30.00 Ry     beta= 0.20
     Davidson diagonalization with overlap
     c_bands:  2 eigenvalues not converged
     ethr =  2.47E-05,  avg # of iterations = 20.0

     negative rho (up, down):  5.130E-01 0.000E+00

     total cpu time spent up to now is      432.4 secs

     total energy              =    -739.90792693 Ry
     estimated scf accuracy    <       0.02858090 Ry

     iteration # 17     ecut=    30.00 Ry     beta= 0.20
     Davidson diagonalization with overlap
     c_bands:  3 eigenvalues not converged
     ethr =  1.21E-05,  avg # of iterations = 20.0

     negative rho (up, down):  3.849E-01 0.000E+00

     total cpu time spent up to now is      467.8 secs

     total energy              =    -739.91498203 Ry
     estimated scf accuracy    <       0.01223440 Ry

     iteration # 18     ecut=    30.00 Ry     beta= 0.20
     Davidson diagonalization with overlap
     c_bands:  4 eigenvalues not converged
     ethr =  5.18E-06,  avg # of iterations = 20.0

     negative rho (up, down):  1.659E-01 0.000E+00

     total cpu time spent up to now is      499.2 secs

     total energy              =    -739.91185049 Ry
     estimated scf accuracy    <       0.00835869 Ry

     iteration # 19     ecut=    30.00 Ry     beta= 0.20
     Davidson diagonalization with overlap
     c_bands:  4 eigenvalues not converged
     ethr =  3.54E-06,  avg # of iterations = 40.0

     negative rho (up, down):  1.615E-01 0.000E+00

     total cpu time spent up to now is      545.0 secs

     total energy              =    -739.91423876 Ry
     estimated scf accuracy    <       0.00164847 Ry

     iteration # 20     ecut=    30.00 Ry     beta= 0.20
     Davidson diagonalization with overlap
     c_bands:  4 eigenvalues not converged
     ethr =  6.99E-07,  avg # of iterations = 40.0

     negative rho (up, down):  1.314E-01 0.000E+00

     total cpu time spent up to now is      588.0 secs

     total energy              =    -739.91481643 Ry
     estimated scf accuracy    <       0.00192349 Ry

     iteration # 21     ecut=    30.00 Ry     beta= 0.20
     Davidson diagonalization with overlap
     c_bands:  3 eigenvalues not converged
     ethr =  6.99E-07,  avg # of iterations = 20.0

     negative rho (up, down):  9.493E-02 0.000E+00

     total cpu time spent up to now is      614.1 secs

     total energy              =    -739.91430587 Ry
     estimated scf accuracy    <       0.00087211 Ry

     iteration # 22     ecut=    30.00 Ry     beta= 0.20
     Davidson diagonalization with overlap
     c_bands:  3 eigenvalues not converged
     ethr =  3.70E-07,  avg # of iterations = 40.0

     negative rho (up, down):  9.496E-02 0.000E+00

     total cpu time spent up to now is      656.2 secs

     total energy              =    -739.91463361 Ry
     estimated scf accuracy    <       0.00059958 Ry

     iteration # 23     ecut=    30.00 Ry     beta= 0.20
     Davidson diagonalization with overlap
     ethr =  2.54E-07,  avg # of iterations = 10.0

     negative rho (up, down):  9.272E-02 0.000E+00

     total cpu time spent up to now is      680.0 secs

     total energy              =    -739.91457703 Ry
     estimated scf accuracy    <       0.00055205 Ry

     iteration # 24     ecut=    30.00 Ry     beta= 0.20
     Davidson diagonalization with overlap
     ethr =  2.34E-07,  avg # of iterations =  1.0

     negative rho (up, down):  8.152E-02 0.000E+00

     total cpu time spent up to now is      701.5 secs

     total energy              =    -739.91424839 Ry
     estimated scf accuracy    <       0.00040448 Ry

     iteration # 25     ecut=    30.00 Ry     beta= 0.20
     Davidson diagonalization with overlap
     c_bands:  1 eigenvalues not converged
     ethr =  1.71E-07,  avg # of iterations = 20.0

     negative rho (up, down):  7.549E-02 0.000E+00

     total cpu time spent up to now is      726.7 secs

     total energy              =    -739.91430714 Ry
     estimated scf accuracy    <       0.00012709 Ry

     iteration # 26     ecut=    30.00 Ry     beta= 0.20
     Davidson diagonalization with overlap
     ethr =  5.39E-08,  avg # of iterations =  6.0

     negative rho (up, down):  7.520E-02 0.000E+00

     total cpu time spent up to now is      753.1 secs

     total energy              =    -739.91430724 Ry
     estimated scf accuracy    <       0.00013625 Ry

     iteration # 27     ecut=    30.00 Ry     beta= 0.20
     Davidson diagonalization with overlap
     ethr =  5.39E-08,  avg # of iterations =  4.0

     negative rho (up, down):  7.589E-02 0.000E+00

     total cpu time spent up to now is      777.6 secs

     total energy              =    -739.91431326 Ry
     estimated scf accuracy    <       0.00002835 Ry

     iteration # 28     ecut=    30.00 Ry     beta= 0.20
     Davidson diagonalization with overlap
     ethr =  1.20E-08,  avg # of iterations =  5.0

     negative rho (up, down):  7.530E-02 0.000E+00

     total cpu time spent up to now is      804.6 secs

     total energy              =    -739.91432051 Ry
     estimated scf accuracy    <       0.00002236 Ry

     iteration # 29     ecut=    30.00 Ry     beta= 0.20
     Davidson diagonalization with overlap
     ethr =  9.47E-09,  avg # of iterations =  2.0

     negative rho (up, down):  7.557E-02 0.000E+00

     total cpu time spent up to now is      828.3 secs

     total energy              =    -739.91431166 Ry
     estimated scf accuracy    <       0.00001649 Ry

     iteration # 30     ecut=    30.00 Ry     beta= 0.20
     Davidson diagonalization with overlap
     ethr =  6.99E-09,  avg # of iterations =  7.0

     negative rho (up, down):  7.534E-02 0.000E+00

     total cpu time spent up to now is      858.5 secs

     total energy              =    -739.91432152 Ry
     estimated scf accuracy    <       0.00001226 Ry

     iteration # 31     ecut=    30.00 Ry     beta= 0.20
     Davidson diagonalization with overlap
     ethr =  5.20E-09,  avg # of iterations =  2.0

     negative rho (up, down):  7.508E-02 0.000E+00

     total cpu time spent up to now is      884.1 secs

     total energy              =    -739.91431748 Ry
     estimated scf accuracy    <       0.00000998 Ry

     iteration # 32     ecut=    30.00 Ry     beta= 0.20
     Davidson diagonalization with overlap
     ethr =  4.23E-09,  avg # of iterations =  7.0

     negative rho (up, down):  7.496E-02 0.000E+00

     total cpu time spent up to now is      904.7 secs

     End of self-consistent calculation

          k = 0.0000 0.0000 0.0000 (146250 PWs)   bands (ev):

   -23.9695 -23.7427 -23.7422 -23.4982 -21.4782 -21.3851 -21.3729 -21.3321
   -20.3022 -19.8980 -19.8848 -19.4762 -18.9055 -18.8936 -18.8673 -18.7623
   -18.4520 -18.4011 -18.3969 -18.3749 -18.2007 -18.0011 -17.9969 -17.6094
   -17.3757 -16.2348 -16.2220 -15.2411 -15.0291 -14.9337 -14.9207 -14.8357
   -14.6124 -14.5791 -14.5626 -14.5094 -14.0493 -13.7667 -13.7552 -13.5037
   -13.3073 -13.2909 -12.8895 -12.8659 -12.7295 -12.5839 -12.4869 -12.4726
   -12.1675 -11.9776 -11.9544 -11.2483 -11.2088 -11.1005 -11.0872 -11.0625
   -10.8636 -10.8431 -10.8313 -10.5478 -10.4740 -10.3960 -10.3274 -10.3272
   -10.3145 -10.2853 -10.2316 -10.2097 -10.1592 -10.1141 -10.0894 -10.0819
   -10.0294  -9.8908  -9.8419  -9.6792  -9.6561  -9.6141  -9.5995  -9.5068
    -9.2942  -9.2199  -9.1452  -9.0563  -9.0486  -9.0196  -8.8386  -8.8258
    -8.7907  -8.5222  -8.4061  -8.2922  -8.2781  -8.2431  -8.2182  -8.2142
    -8.1969  -8.0803  -7.7552  -7.6946  -7.6589  -7.0783  -7.0304  -6.5670
    -6.3533  -6.3446  -6.3410  -6.3324  -6.2822  -6.1279  -6.0914  -6.0706
    -5.8978  -5.8874  -5.8831  -5.4270  -5.0571  -4.6189  -2.9721  -2.9437
    -1.8470  -1.2963  -1.2727  -1.2611  -1.2510  -1.2271  -1.1944  -1.1696
    -1.1021  -0.5932  -0.3689  -0.3578  -0.3433  -0.2255  -0.1626  -0.1274
    -0.0761  -0.0276  -0.0183   0.0269   0.0287   0.1079

     the Fermi energy is    -3.6246 ev

     WARNING: integrated charge=   236.00019979, expected=   236.00000000

!    total energy              =    -739.91431933 Ry
     estimated scf accuracy    <       0.00000070 Ry
     smearing contrib. (-TS)   =       0.00000302 Ry
     internal energy E=F+TS    =    -739.91432236 Ry

     The total energy is F=E-TS. E is the sum of the following terms:
     one-electron contribution =  -12704.58822677 Ry
     hartree contribution      =    6384.34919110 Ry
     xc contribution           =    -212.11876969 Ry
     ewald contribution        =    5792.44348301 Ry

     convergence has been achieved in  32 iterations

     Writing all to output data dir /Users/behnamazizi/Documents/predoc exam/planar_cls/tmp_v3/planar_v3.save/ :
     XML data file, charge density, pseudopotentials, collected wavefunctions

     init_run     :      8.21s CPU      9.80s WALL (       1 calls)
     electrons    :    722.27s CPU    894.93s WALL (       1 calls)

     Called by init_run:
     wfcinit      :      5.01s CPU      5.41s WALL (       1 calls)
     potinit      :      0.89s CPU      1.01s WALL (       1 calls)
     hinit0       :      0.53s CPU      0.57s WALL (       1 calls)

     Called by electrons:
     c_bands      :    354.90s CPU    386.63s WALL (      32 calls)
     sum_band     :    118.73s CPU    175.36s WALL (      32 calls)
     v_of_rho     :     24.42s CPU     28.14s WALL (      33 calls)
     newd         :     39.81s CPU     96.64s WALL (      33 calls)
     mix_rho      :    182.40s CPU    205.64s WALL (      32 calls)

     Called by c_bands:
     init_us_2    :      2.53s CPU      4.64s WALL (      65 calls)
     regterg      :    350.23s CPU    379.83s WALL (      35 calls)

     Called by *egterg:
     rdiaghg      :      4.46s CPU      4.68s WALL (     430 calls)
     h_psi        :    283.36s CPU    307.10s WALL (     431 calls)
     s_psi        :     17.82s CPU     18.57s WALL (     431 calls)
     g_psi        :      0.46s CPU      0.48s WALL (     395 calls)

     Called by h_psi:
     h_psi:calbec :     23.89s CPU     25.05s WALL (     431 calls)
     vloc_psi     :    240.79s CPU    262.48s WALL (     431 calls)
                                        0.00s GPU  (     431 calls)
     add_vuspsi   :     17.83s CPU     18.59s WALL (     431 calls)

     General routines
     calbec       :     29.25s CPU     30.70s WALL (     463 calls)
     fft          :     21.24s CPU     23.14s WALL (     361 calls)
     ffts         :    124.44s CPU    135.26s WALL (    3878 calls)
     fftw         :    237.78s CPU    258.85s WALL (   16186 calls)
     interpolate  :      3.28s CPU      3.73s WALL (      33 calls)

     Parallel routines

     PWSCF        :  12m10.68s CPU  15m 5.10s WALL


   This run was terminated on:  23:39:41  31Jul2026            

=------------------------------------------------------------------------------=
   JOB DONE.
=------------------------------------------------------------------------------=
Note: The following floating-point exceptions are signalling: IEEE_UNDERFLOW_FLAG
Note: The following floating-point exceptions are signalling: IEEE_UNDERFLOW_FLAG
Note: The following floating-point exceptions are signalling: IEEE_UNDERFLOW_FLAG
Note: The following floating-point exceptions are signalling: IEEE_UNDERFLOW_FLAG
