
     Program PWSCF v.7.5 starts on  1Aug2026 at 13: 2:57 

     This program is part of the open-source Quantum ESPRESSO suite
     for quantum simulation of materials; please cite
         "P. Giannozzi et al., J. Phys.:Condens. Matter 21 395502 (2009);
         "P. Giannozzi et al., J. Phys.:Condens. Matter 29 465901 (2017);
         "P. Giannozzi et al., J. Chem. Phys. 152 154105 (2020);
          URL http://www.quantum-espresso.org", 
     in publications or presentations arising from this work. More details at
     http://www.quantum-espresso.org/quote

     Parallel version (MPI), running on     4 processors

     MPI processes distributed on     1 nodes
     0 MiB available memory on the printing compute node when the environment starts

     Reading input from /Users/behnamazizi/Downloads/core level shifts/cross/input/cross.scf.in

     Current dimensions of program PWSCF are:
     Max number of different atomic species (ntypx) = 10
     Max number of k-points (npk) =  40000
     Max angular momentum in pseudopotentials (lmaxx) =  4
     file C.pbe-rrkjus.UPF: wavefunction(s)  2S 2P renormalized
     file H.pbe-rrkjus.UPF: wavefunction(s)  1S renormalized

     IMPORTANT: XC functional enforced from input :
     Exchange-correlation= PBE
                           (   1   4   3   4   0   0   0)
     Any further DFT definition will be discarded
     Please, verify this is what you really want


     gamma-point specific algorithms are used

     R & G space division:  proc/nbgrp/npool/nimage =       4
     Subspace diagonalization in iterative solution of the eigenvalue problem:
     a serial algorithm will be used


     Parallelization info
     --------------------
     sticks:   dense  smooth     PW     G-vecs:    dense   smooth      PW
     Min        7986    5331   1333              1074872   585126   73123
     Max        7989    5334   1336              1074881   585128   73126
     Sum       31949   21329   5337              4299501  2340509  292499

     Using Slab Decomposition



     bravais-lattice index     =            1
     lattice parameter (alat)  =      47.2432  a.u.
     unit-cell volume          =  105442.7265 (a.u.)^3
     number of atoms/cell      =           77
     number of atomic types    =            6
     number of electrons       =       236.00
     number of Kohn-Sham states=          142
     kinetic-energy cutoff     =      30.0000  Ry
     charge density cutoff     =     180.0000  Ry
     scf convergence threshold =      1.0E-06
     mixing beta               =       0.2000
     number of iterations used =           20  local-TF  mixing
     Exchange-correlation= PBE
                           (   1   4   3   4   0   0   0)
     Assuming isolated system, Martyna-Tuckerman method


     celldm(1)=  47.243153  celldm(2)=   0.000000  celldm(3)=   0.000000
     celldm(4)=   0.000000  celldm(5)=   0.000000  celldm(6)=   0.000000

     crystal axes: (cart. coord. in units of alat)
               a(1) = (   1.000000   0.000000   0.000000 )  
               a(2) = (   0.000000   1.000000   0.000000 )  
               a(3) = (   0.000000   0.000000   1.000000 )  

     reciprocal axes: (cart. coord. in units 2 pi/alat)
               b(1) = (  1.000000  0.000000  0.000000 )  
               b(2) = (  0.000000  1.000000  0.000000 )  
               b(3) = (  0.000000  0.000000  1.000000 )  


     PseudoPot. # 1 for Zn read from file:
     /Users/behnamazizi/Downloads/core level shifts/pseudopotential/Zn.pbe-van.UPF
     MD5 check sum: e89cebcf7a22e388733959be9607aa2e
     Pseudo is Ultrasoft, Zval = 12.0
     Generated by new atomic code, or converted to UPF format
     Using radial grid of  869 points,  6 beta functions with: 
                l(1) =   0
                l(2) =   0
                l(3) =   1
                l(4) =   1
                l(5) =   2
                l(6) =   2
     Q(r) pseudized with  8 coefficients,  rinner =    0.800   0.800   0.800
                                                       0.800   0.800

     PseudoPot. # 2 for C  read from file:
     /Users/behnamazizi/Downloads/core level shifts/pseudopotential/C.pbe-rrkjus.UPF
     MD5 check sum: c9ac5a99bc85b198593446162950cd17
     Pseudo is Ultrasoft, Zval =  4.0
     Generated by new atomic code, or converted to UPF format
     Using radial grid of  627 points,  4 beta functions with: 
                l(1) =   0
                l(2) =   0
                l(3) =   1
                l(4) =   1
     Q(r) pseudized with 0 coefficients 


     PseudoPot. # 3 for N  read from file:
     /Users/behnamazizi/Downloads/core level shifts/pseudopotential/N.pbe-van_ak.UPF
     MD5 check sum: 090a72b4b4f32b788c2341547a991be6
     Pseudo is Ultrasoft, Zval =  5.0
     Generated by new atomic code, or converted to UPF format
     Using radial grid of  729 points,  4 beta functions with: 
                l(1) =   0
                l(2) =   0
                l(3) =   1
                l(4) =   1
     Q(r) pseudized with  8 coefficients,  rinner =    0.800   0.800   0.800


     PseudoPot. # 4 for H  read from file:
     /Users/behnamazizi/Downloads/core level shifts/pseudopotential/H.pbe-rrkjus.UPF
     MD5 check sum: 2d52a7f45632fd764c17cc6affed14c8
     Pseudo is Ultrasoft, Zval =  1.0
     Generated by new atomic code, or converted to UPF format
     Using radial grid of 1061 points,  2 beta functions with: 
                l(1) =   0
                l(2) =   0
     Q(r) pseudized with 0 coefficients 


     PseudoPot. # 5 for C  read from file:
     /Users/behnamazizi/Downloads/core level shifts/pseudopotential/C.star1s-pbe-rrkjus.UPF
     MD5 check sum: d6a66a864dce4990f98654a67f8dd415
     Pseudo is Ultrasoft, Zval =  5.0
     Generated by new atomic code, or converted to UPF format
     Using radial grid of 1073 points,  4 beta functions with: 
                l(1) =   0
                l(2) =   0
                l(3) =   1
                l(4) =   1
     Q(r) pseudized with 0 coefficients 


     PseudoPot. # 6 for N  read from file:
     /Users/behnamazizi/Downloads/core level shifts/pseudopotential/N.star1s-pbe-van.UPF
     MD5 check sum: ee94cefccf6368fcf05291e556b07c24
     Pseudo is Ultrasoft, Zval =  6.0
     Generated by new atomic code, or converted to UPF format
     Using radial grid of  729 points,  4 beta functions with: 
                l(1) =   0
                l(2) =   0
                l(3) =   1
                l(4) =   1
     Q(r) pseudized with  8 coefficients,  rinner =    0.800   0.800   0.800


     atomic species   valence    mass     pseudopotential
     Zn               12.00    65.38000     Zn( 1.00)
     C                 4.00    12.01100     C ( 1.00)
     N                 5.00    14.00700     N ( 1.00)
     H                 1.00     1.00800     H ( 1.00)
     Cs                5.00    12.01100     C ( 1.00)
     Ns                6.00    14.00700     N ( 1.00)

     No symmetry found



   Cartesian axes

     site n.     atom                  positions (alat units)
         1        Zn     tau(   1) = (   0.5212580   0.4730666   0.5905884  )
         2        C      tau(   2) = (   0.4359555   0.6186638   0.5784010  )
         3        C      tau(   3) = (   0.3938659   0.5833620   0.5763700  )
         4        C      tau(   4) = (   0.4817068   0.5892828   0.5976336  )
         5        C      tau(   5) = (   0.4142110   0.5325770   0.5949638  )
         6        C      tau(   6) = (   0.5331291   0.6100954   0.6100132  )
         7        C      tau(   7) = (   0.5118202   0.7585043   0.6337909  )
         8        C      tau(   8) = (   0.5589452   0.7798796   0.6125500  )
         9        C      tau(   9) = (   0.5032935   0.7034376   0.6337628  )
        10        C      tau(  10) = (   0.5977912   0.7455932   0.5915601  )
        11        C      tau(  11) = (   0.5415848   0.6682595   0.6119028  )
        12        C      tau(  12) = (   0.5891083   0.6906354   0.5909431  )
        13        C      tau(  13) = (   0.3838455   0.4866127   0.6089172  )
        14        C      tau(  14) = (   0.2489174   0.5407381   0.6522327  )
        15        C      tau(  15) = (   0.2147639   0.4989094   0.6374511  )
        16        C      tau(  16) = (   0.3036006   0.5371885   0.6422726  )
        17        C      tau(  17) = (   0.2358275   0.4536303   0.6124140  )
        18        C      tau(  18) = (   0.3256403   0.4916502   0.6170242  )
        19        C      tau(  19) = (   0.2904522   0.4501054   0.6021484  )
        20        C      tau(  20) = (   0.5782547   0.5771532   0.6204597  )
        21        C      tau(  21) = (   0.4078745   0.4363156   0.6203543  )
        22        C      tau(  22) = (   0.6253666   0.5945425   0.6486672  )
        23        C      tau(  23) = (   0.3824718   0.3932489   0.6489770  )
        24        C      tau(  24) = (   0.6604365   0.5525747   0.6485032  )
        25        C      tau(  25) = (   0.4176479   0.3513624   0.6491512  )
        26        C      tau(  26) = (   0.6350316   0.5096625   0.6196544  )
        27        C      tau(  27) = (   0.4647348   0.3688598   0.6209520  )
        28        C      tau(  28) = (   0.6590043   0.4594228   0.6079135  )
        29        C      tau(  29) = (   0.7526029   0.4957938   0.6024121  )
        30        C      tau(  30) = (   0.7171334   0.4541041   0.6161989  )
        31        C      tau(  31) = (   0.8071582   0.4917333   0.6128308  )
        32        C      tau(  32) = (   0.7388338   0.4079603   0.6406127  )
        33        C      tau(  33) = (   0.8278962   0.4457182   0.6367844  )
        34        C      tau(  34) = (   0.7934570   0.4037837   0.6505440  )
        35        C      tau(  35) = (   0.5098114   0.3359861   0.6101627  )
        36        C      tau(  36) = (   0.4541458   0.2548078   0.5924756  )
        37        C      tau(  37) = (   0.5017228   0.2777927   0.6126110  )
        38        C      tau(  38) = (   0.4460142   0.1997682   0.5936402  )
        39        C      tau(  39) = (   0.5406308   0.2431600   0.6342402  )
        40        C      tau(  40) = (   0.4854602   0.1660122   0.6143728  )
        41        C      tau(  41) = (   0.5326640   0.1880060   0.6348078  )
        42        C      tau(  42) = (   0.6285023   0.4136085   0.5936285  )
        43        C      tau(  43) = (   0.5610396   0.3568704   0.5969479  )
        44        C      tau(  44) = (   0.6486057   0.3629277   0.5745386  )
        45        C      tau(  45) = (   0.6065317   0.3275866   0.5770058  )
        46        H      tau(  46) = (   0.1719060   0.5017340   0.6454287  )
        47        H      tau(  47) = (   0.8707249   0.4424296   0.6447390  )
        48        H      tau(  48) = (   0.4364834   0.6604942   0.5667634  )
        49        H      tau(  49) = (   0.3527087   0.5912625   0.5644523  )
        50        H      tau(  50) = (   0.6302134   0.6332062   0.6678263  )
        51        H      tau(  51) = (   0.3434906   0.3952043   0.6679531  )
        52        H      tau(  52) = (   0.6993256   0.5504830   0.6676614  )
        53        H      tau(  53) = (   0.4128614   0.3126626   0.6682530  )
        54        H      tau(  54) = (   0.6896223   0.3550272   0.5621136  )
        55        H      tau(  55) = (   0.6059574   0.2857442   0.5654094  )
        56        H      tau(  56) = (   0.4816733   0.7850403   0.6509402  )
        57        H      tau(  57) = (   0.4671282   0.6869243   0.6517629  )
        58        H      tau(  58) = (   0.6347831   0.7618752   0.5749369  )
        59        H      tau(  59) = (   0.6185617   0.6641193   0.5726997  )
        60        H      tau(  60) = (   0.4796769   0.1227606   0.6142852  )
        61        H      tau(  61) = (   0.2328658   0.5760566   0.6722679  )
        62        H      tau(  62) = (   0.3301519   0.5691477   0.6555599  )
        63        H      tau(  63) = (   0.2096151   0.4211818   0.5995177  )
        64        H      tau(  64) = (   0.3059382   0.4154088   0.5807675  )
        65        H      tau(  65) = (   0.7374109   0.5310518   0.5817477  )
        66        H      tau(  66) = (   0.8336010   0.5243828   0.6009358  )
        67        H      tau(  67) = (   0.7120236   0.3759526   0.6532234  )
        68        H      tau(  68) = (   0.8092170   0.3678904   0.6697610  )
        69        H      tau(  69) = (   0.4242496   0.2808715   0.5743028  )
        70        H      tau(  70) = (   0.4090340   0.1829787   0.5775363  )
        71        H      tau(  71) = (   0.5768373   0.2601745   0.6516662  )
        72        H      tau(  72) = (   0.5632969   0.1619072   0.6517399  )
        73        H      tau(  73) = (   0.5651163   0.8230840   0.6120775  )
        74        N      tau(  74) = (   0.4682104   0.5366174   0.6046428  )
        75        N      tau(  75) = (   0.5841922   0.5248102   0.6046770  )
        76        N      tau(  76) = (   0.4587164   0.4212662   0.6053619  )
        77        N      tau(  77) = (   0.5746030   0.4095244   0.6038796  )

     number of k points=     1  Marzari-Vanderbilt smearing, width (Ry)=  0.0200
                       cart. coord. in units 2pi/alat
        k(    1) = (   0.0000000   0.0000000   0.0000000), wk =   2.0000000

     Dense  grid:  2149751 G-vectors     FFT dimensions: ( 216, 216, 216)

     Smooth grid:  1170255 G-vectors     FFT dimensions: ( 180, 180, 180)

     Estimated max dynamical RAM per process >       2.83 GB

     Estimated total dynamical RAM >      11.33 GB

     Initial potential from superposition of free atoms

     starting charge     233.3038, renormalised to     236.0000

     negative rho (up, down):  3.558E-02 0.000E+00
     Starting wfcs are  226 randomized atomic wfcs

     total cpu time spent up to now is       58.0 secs

     Self-consistent Calculation

     iteration #  1     ecut=    30.00 Ry     beta= 0.20
     Davidson diagonalization with overlap
     ethr =  1.00E-02,  avg # of iterations =  5.0

     negative rho (up, down):  7.915E-03 0.000E+00

     total cpu time spent up to now is      238.6 secs

     total energy              =    -737.46312169 Ry
     estimated scf accuracy    <     135.51835721 Ry

     iteration #  2     ecut=    30.00 Ry     beta= 0.20
     Davidson diagonalization with overlap
     ethr =  1.00E-02,  avg # of iterations =  2.0

     negative rho (up, down):  2.054E-03 0.000E+00

     total cpu time spent up to now is      353.9 secs

     total energy              =    -743.08889621 Ry
     estimated scf accuracy    <      11.18400037 Ry

     iteration #  3     ecut=    30.00 Ry     beta= 0.20
     Davidson diagonalization with overlap
     ethr =  4.74E-03,  avg # of iterations =  1.0

     negative rho (up, down):  5.878E-03 0.000E+00

     total cpu time spent up to now is      466.6 secs

     total energy              =    -739.31548904 Ry
     estimated scf accuracy    <       8.78670712 Ry

     iteration #  4     ecut=    30.00 Ry     beta= 0.20
     Davidson diagonalization with overlap
     ethr =  3.72E-03,  avg # of iterations =  2.0

     negative rho (up, down):  2.392E-03 0.000E+00

     total cpu time spent up to now is      579.2 secs

     total energy              =    -739.95518840 Ry
     estimated scf accuracy    <       1.65509246 Ry

     iteration #  5     ecut=    30.00 Ry     beta= 0.20
     Davidson diagonalization with overlap
     ethr =  7.01E-04,  avg # of iterations = 11.0

     negative rho (up, down):  5.045E-04 0.000E+00

     total cpu time spent up to now is      725.3 secs

     total energy              =    -740.50293673 Ry
     estimated scf accuracy    <       1.46856137 Ry

     iteration #  6     ecut=    30.00 Ry     beta= 0.20
     Davidson diagonalization with overlap
     ethr =  6.22E-04,  avg # of iterations =  2.0

     negative rho (up, down):  1.857E-02 0.000E+00

     total cpu time spent up to now is      837.2 secs

     total energy              =    -740.12212068 Ry
     estimated scf accuracy    <       1.24842080 Ry

     iteration #  7     ecut=    30.00 Ry     beta= 0.20
     Davidson diagonalization with overlap
     ethr =  5.29E-04,  avg # of iterations =  2.0

     negative rho (up, down):  5.011E-02 0.000E+00

     total cpu time spent up to now is      941.4 secs

     total energy              =    -740.14897057 Ry
     estimated scf accuracy    <       0.59630376 Ry

     iteration #  8     ecut=    30.00 Ry     beta= 0.20
     Davidson diagonalization with overlap
     c_bands:  1 eigenvalues not converged
     ethr =  2.53E-04,  avg # of iterations = 20.0

     negative rho (up, down):  8.044E-04 0.000E+00

     total cpu time spent up to now is     1054.8 secs

     total energy              =    -740.11609682 Ry
     estimated scf accuracy    <       0.54770619 Ry

     iteration #  9     ecut=    30.00 Ry     beta= 0.20
     Davidson diagonalization with overlap
     ethr =  2.32E-04,  avg # of iterations =  2.0

     negative rho (up, down):  5.026E-01 0.000E+00

     total cpu time spent up to now is     1144.5 secs

     total energy              =    -740.05369937 Ry
     estimated scf accuracy    <       0.33718585 Ry

     iteration # 10     ecut=    30.00 Ry     beta= 0.20
     Davidson diagonalization with overlap
     c_bands:  2 eigenvalues not converged
     ethr =  1.43E-04,  avg # of iterations = 20.0

     negative rho (up, down):  2.399E-01 0.000E+00

     total cpu time spent up to now is     1257.4 secs

     total energy              =    -740.10659243 Ry
     estimated scf accuracy    <       0.23333670 Ry

     iteration # 11     ecut=    30.00 Ry     beta= 0.20
     Davidson diagonalization with overlap
     c_bands:  4 eigenvalues not converged
     ethr =  9.89E-05,  avg # of iterations = 20.0

     negative rho (up, down):  3.763E-01 0.000E+00

     total cpu time spent up to now is     1363.8 secs

     total energy              =    -740.07833782 Ry
     estimated scf accuracy    <       0.19902814 Ry

     iteration # 12     ecut=    30.00 Ry     beta= 0.20
     Davidson diagonalization with overlap
     c_bands:  2 eigenvalues not converged
     ethr =  8.43E-05,  avg # of iterations = 20.0

     negative rho (up, down):  4.454E-01 0.000E+00

     total cpu time spent up to now is     1466.9 secs

     total energy              =    -740.07926962 Ry
     estimated scf accuracy    <       0.15637984 Ry

     iteration # 13     ecut=    30.00 Ry     beta= 0.20
     Davidson diagonalization with overlap
     ethr =  6.63E-05,  avg # of iterations = 17.0

     negative rho (up, down):  4.026E-01 0.000E+00

     total cpu time spent up to now is     1565.4 secs

     total energy              =    -740.03125213 Ry
     estimated scf accuracy    <       0.14066058 Ry

     iteration # 14     ecut=    30.00 Ry     beta= 0.20
     Davidson diagonalization with overlap
     ethr =  5.96E-05,  avg # of iterations =  2.0

     negative rho (up, down):  6.178E-01 0.000E+00

     total cpu time spent up to now is     1653.6 secs

     total energy              =    -740.03094892 Ry
     estimated scf accuracy    <       0.07477708 Ry

     iteration # 15     ecut=    30.00 Ry     beta= 0.20
     Davidson diagonalization with overlap
     c_bands:  4 eigenvalues not converged
     ethr =  3.17E-05,  avg # of iterations = 20.0

     negative rho (up, down):  3.810E-01 0.000E+00

     total cpu time spent up to now is     1766.6 secs

     total energy              =    -739.99984100 Ry
     estimated scf accuracy    <       0.06397519 Ry

     iteration # 16     ecut=    30.00 Ry     beta= 0.20
     Davidson diagonalization with overlap
     c_bands:  3 eigenvalues not converged
     ethr =  2.71E-05,  avg # of iterations = 20.0

     negative rho (up, down):  5.354E-01 0.000E+00

     total cpu time spent up to now is     1881.1 secs

     total energy              =    -740.00211835 Ry
     estimated scf accuracy    <       0.02445921 Ry

     iteration # 17     ecut=    30.00 Ry     beta= 0.20
     Davidson diagonalization with overlap
     c_bands:  4 eigenvalues not converged
     ethr =  1.04E-05,  avg # of iterations = 40.0

     negative rho (up, down):  4.115E-01 0.000E+00

     total cpu time spent up to now is     2070.7 secs

     total energy              =    -740.01042321 Ry
     estimated scf accuracy    <       0.01454031 Ry

     iteration # 18     ecut=    30.00 Ry     beta= 0.20
     Davidson diagonalization with overlap
     c_bands:  3 eigenvalues not converged
     ethr =  6.16E-06,  avg # of iterations = 20.0

     negative rho (up, down):  1.964E-01 0.000E+00

     total cpu time spent up to now is     2178.3 secs

     total energy              =    -740.00373446 Ry
     estimated scf accuracy    <       0.00988800 Ry

     iteration # 19     ecut=    30.00 Ry     beta= 0.20
     Davidson diagonalization with overlap
     ethr =  4.19E-06,  avg # of iterations = 22.0

     negative rho (up, down):  1.858E-01 0.000E+00

     total cpu time spent up to now is     2350.5 secs

     total energy              =    -740.00665975 Ry
     estimated scf accuracy    <       0.00304278 Ry

     iteration # 20     ecut=    30.00 Ry     beta= 0.20
     Davidson diagonalization with overlap
     c_bands:  3 eigenvalues not converged
     ethr =  1.29E-06,  avg # of iterations = 20.0

     negative rho (up, down):  1.624E-01 0.000E+00

     total cpu time spent up to now is     2462.8 secs

     total energy              =    -740.00699532 Ry
     estimated scf accuracy    <       0.00286108 Ry

     iteration # 21     ecut=    30.00 Ry     beta= 0.20
     Davidson diagonalization with overlap
     c_bands:  1 eigenvalues not converged
     ethr =  1.21E-06,  avg # of iterations = 20.0

     negative rho (up, down):  1.045E-01 0.000E+00

     total cpu time spent up to now is     2564.7 secs

     total energy              =    -740.00593542 Ry
     estimated scf accuracy    <       0.00214946 Ry

     iteration # 22     ecut=    30.00 Ry     beta= 0.20
     Davidson diagonalization with overlap
     c_bands:  3 eigenvalues not converged
     ethr =  9.11E-07,  avg # of iterations = 40.0

     negative rho (up, down):  1.008E-01 0.000E+00

     total cpu time spent up to now is     2756.2 secs

     total energy              =    -740.00637765 Ry
     estimated scf accuracy    <       0.00091638 Ry

     iteration # 23     ecut=    30.00 Ry     beta= 0.20
     Davidson diagonalization with overlap
     c_bands:  1 eigenvalues not converged
     ethr =  3.88E-07,  avg # of iterations = 20.0

     negative rho (up, down):  8.544E-02 0.000E+00

     total cpu time spent up to now is     2853.9 secs

     total energy              =    -740.00606193 Ry
     estimated scf accuracy    <       0.00068596 Ry

     iteration # 24     ecut=    30.00 Ry     beta= 0.20
     Davidson diagonalization with overlap
     c_bands:  2 eigenvalues not converged
     ethr =  2.91E-07,  avg # of iterations = 20.0

     negative rho (up, down):  8.188E-02 0.000E+00

     total cpu time spent up to now is     2977.5 secs

     total energy              =    -740.00633720 Ry
     estimated scf accuracy    <       0.00024097 Ry

     iteration # 25     ecut=    30.00 Ry     beta= 0.20
     Davidson diagonalization with overlap
     c_bands:  1 eigenvalues not converged
     ethr =  1.02E-07,  avg # of iterations = 20.0

     negative rho (up, down):  8.282E-02 0.000E+00

     total cpu time spent up to now is     3094.5 secs

     total energy              =    -740.00642638 Ry
     estimated scf accuracy    <       0.00035135 Ry

     iteration # 26     ecut=    30.00 Ry     beta= 0.20
     Davidson diagonalization with overlap
     c_bands:  1 eigenvalues not converged
     ethr =  1.02E-07,  avg # of iterations = 20.0

     negative rho (up, down):  7.615E-02 0.000E+00

     total cpu time spent up to now is     3191.4 secs

     total energy              =    -740.00628433 Ry
     estimated scf accuracy    <       0.00035573 Ry

     iteration # 27     ecut=    30.00 Ry     beta= 0.20
     Davidson diagonalization with overlap
     c_bands:  1 eigenvalues not converged
     ethr =  1.02E-07,  avg # of iterations = 20.0

     negative rho (up, down):  7.428E-02 0.000E+00

     total cpu time spent up to now is     3299.0 secs

     total energy              =    -740.00625623 Ry
     estimated scf accuracy    <       0.00012355 Ry

     iteration # 28     ecut=    30.00 Ry     beta= 0.20
     Davidson diagonalization with overlap
     ethr =  5.24E-08,  avg # of iterations =  5.0

     negative rho (up, down):  7.400E-02 0.000E+00

     total cpu time spent up to now is     3396.0 secs

     total energy              =    -740.00628842 Ry
     estimated scf accuracy    <       0.00005217 Ry

     iteration # 29     ecut=    30.00 Ry     beta= 0.20
     Davidson diagonalization with overlap
     ethr =  2.21E-08,  avg # of iterations =  2.0

     negative rho (up, down):  7.337E-02 0.000E+00

     total cpu time spent up to now is     3487.7 secs

     total energy              =    -740.00628851 Ry
     estimated scf accuracy    <       0.00006176 Ry

     iteration # 30     ecut=    30.00 Ry     beta= 0.20
     Davidson diagonalization with overlap
     ethr =  2.21E-08,  avg # of iterations =  2.0

     negative rho (up, down):  7.284E-02 0.000E+00

     total cpu time spent up to now is     3578.1 secs

     total energy              =    -740.00628704 Ry
     estimated scf accuracy    <       0.00004212 Ry

     iteration # 31     ecut=    30.00 Ry     beta= 0.20
     Davidson diagonalization with overlap
     ethr =  1.78E-08,  avg # of iterations =  4.0

     negative rho (up, down):  7.248E-02 0.000E+00

     total cpu time spent up to now is     3671.9 secs

     total energy              =    -740.00629204 Ry
     estimated scf accuracy    <       0.00002356 Ry

     iteration # 32     ecut=    30.00 Ry     beta= 0.20
     Davidson diagonalization with overlap
     ethr =  9.98E-09,  avg # of iterations =  4.0

     negative rho (up, down):  7.241E-02 0.000E+00

     total cpu time spent up to now is     3767.9 secs

     total energy              =    -740.00629204 Ry
     estimated scf accuracy    <       0.00001739 Ry

     iteration # 33     ecut=    30.00 Ry     beta= 0.20
     Davidson diagonalization with overlap
     ethr =  7.37E-09,  avg # of iterations =  5.0

     negative rho (up, down):  7.243E-02 0.000E+00

     total cpu time spent up to now is     3867.9 secs

     total energy              =    -740.00629349 Ry
     estimated scf accuracy    <       0.00000695 Ry

     iteration # 34     ecut=    30.00 Ry     beta= 0.20
     Davidson diagonalization with overlap
     ethr =  2.95E-09,  avg # of iterations =  4.0

     negative rho (up, down):  7.219E-02 0.000E+00

     total cpu time spent up to now is     3980.9 secs

     total energy              =    -740.00629691 Ry
     estimated scf accuracy    <       0.00000204 Ry

     iteration # 35     ecut=    30.00 Ry     beta= 0.20
     Davidson diagonalization with overlap
     ethr =  8.65E-10,  avg # of iterations =  5.0

     negative rho (up, down):  7.237E-02 0.000E+00

     total cpu time spent up to now is     4084.8 secs

     total energy              =    -740.00629736 Ry
     estimated scf accuracy    <       0.00000116 Ry

     iteration # 36     ecut=    30.00 Ry     beta= 0.20
     Davidson diagonalization with overlap
     ethr =  4.90E-10,  avg # of iterations =  5.0

     negative rho (up, down):  7.185E-02 0.000E+00

     total cpu time spent up to now is     4159.8 secs

     End of self-consistent calculation

          k = 0.0000 0.0000 0.0000 (146250 PWs)   bands (ev):

   -23.9986 -23.7675 -23.7646 -23.5128 -21.4352 -21.3403 -21.3353 -21.2921
   -20.2644 -19.8528 -19.8424 -19.4205 -18.8810 -18.8523 -18.8482 -18.7278
   -18.4427 -18.3844 -18.3758 -18.3500 -18.1602 -17.9668 -17.9269 -17.5371
   -17.2942 -16.2149 -16.1779 -15.2850 -15.0017 -14.9045 -14.8929 -14.7519
   -14.5604 -14.5310 -14.5266 -14.5171 -13.8758 -13.7810 -13.7531 -13.4835
   -13.3424 -13.2153 -12.8587 -12.8361 -12.7149 -12.4980 -12.4746 -12.4520
   -12.1258 -11.9536 -11.9357 -11.2633 -11.2216 -11.0601 -11.0271 -11.0211
   -10.8262 -10.8095 -10.7733 -10.6239 -10.4879 -10.4349 -10.4172 -10.3379
   -10.3209 -10.2355 -10.2275 -10.1980 -10.1381 -10.1201 -10.0932 -10.0686
   -10.0444 -10.0048  -9.8281  -9.8025  -9.7328  -9.6681  -9.6247  -9.5155
    -9.2704  -9.2164  -9.0817  -9.0748  -9.0057  -8.8695  -8.8089  -8.7984
    -8.7870  -8.6044  -8.4023  -8.2902  -8.2764  -8.1568  -8.1322  -8.1303
    -8.1210  -8.0997  -7.6807  -7.6525  -7.4442  -7.0960  -7.0228  -6.6719
    -6.3345  -6.3229  -6.3146  -6.3037  -6.1984  -6.0684  -6.0106  -5.9607
    -5.8682  -5.8289  -5.7936  -5.6141  -5.0155  -4.4303  -2.9921  -2.9795
    -2.0303  -1.3649  -1.2185  -1.2050  -1.1995  -1.1823  -1.1235  -1.1171
    -1.0114  -0.9476  -0.5569  -0.4023  -0.4015  -0.3239  -0.3160  -0.2002
    -0.1195  -0.0276   0.0128   0.0149   0.0256   0.0766

     the Fermi energy is    -3.5502 ev

     WARNING: integrated charge=   236.00186457, expected=   236.00000000

!    total energy              =    -740.00629696 Ry
     estimated scf accuracy    <       0.00000026 Ry
     smearing contrib. (-TS)   =       0.00002896 Ry
     internal energy E=F+TS    =    -740.00632592 Ry

     The total energy is F=E-TS. E is the sum of the following terms:
     one-electron contribution =  -12787.32611506 Ry
     hartree contribution      =    6425.87313702 Ry
     xc contribution           =    -212.02312179 Ry
     ewald contribution        =    5833.46977392 Ry

     convergence has been achieved in  36 iterations

     Writing all to output data dir /Users/behnamazizi/Downloads/core level shifts/cross/output/restart_data/cross_cls.save/ :
     XML data file, charge density, pseudopotentials, collected wavefunctions

     init_run     :     27.60s CPU     57.66s WALL (       1 calls)
     electrons    :   2495.21s CPU   4102.39s WALL (       1 calls)

     Called by init_run:
     wfcinit      :     18.44s CPU     34.20s WALL (       1 calls)
     potinit      :      2.83s CPU      5.38s WALL (       1 calls)
     hinit0       :      1.65s CPU      2.76s WALL (       1 calls)

     Called by electrons:
     c_bands      :   1327.96s CPU   2050.45s WALL (      36 calls)
     sum_band     :    360.97s CPU    741.45s WALL (      36 calls)
     v_of_rho     :     78.75s CPU    120.27s WALL (      37 calls)
     newd         :    121.21s CPU    274.84s WALL (      37 calls)
     mix_rho      :    598.14s CPU    907.70s WALL (      36 calls)

     Called by c_bands:
     init_us_2    :      9.55s CPU     26.40s WALL (      73 calls)
     regterg      :   1313.27s CPU   2018.72s WALL (      39 calls)

     Called by *egterg:
     rdiaghg      :     11.67s CPU     17.97s WALL (     503 calls)
     h_psi        :   1065.21s CPU   1638.16s WALL (     504 calls)
     s_psi        :     65.17s CPU     99.09s WALL (     504 calls)
     g_psi        :      1.39s CPU      2.07s WALL (     464 calls)

     Called by h_psi:
     h_psi:calbec :     92.68s CPU    142.28s WALL (     504 calls)
     vloc_psi     :    906.89s CPU   1396.16s WALL (     504 calls)
                                        0.00s GPU  (     504 calls)
     add_vuspsi   :     63.69s CPU     96.69s WALL (     504 calls)

     General routines
     calbec       :    115.40s CPU    176.91s WALL (     540 calls)
     fft          :     85.04s CPU    127.27s WALL (     405 calls)
     ffts         :    455.47s CPU    677.02s WALL (    4378 calls)
     fftw         :    990.16s CPU   1516.21s WALL (   17630 calls)
     interpolate  :     12.15s CPU     18.52s WALL (      37 calls)

     Parallel routines

     PWSCF        :  42m 3.66s CPU      1h 9m WALL


   This run was terminated on:  14:12:20   1Aug2026            

=------------------------------------------------------------------------------=
   JOB DONE.
=------------------------------------------------------------------------------=
