81
	Energy:     624.8730876
Zn        -0.05622        0.02165       -0.03641
C          4.18128       -0.70924       -0.15523
C          4.18858        0.65455       -0.22936
C          2.84704       -1.10727        0.01450
C          2.86417        1.08258       -0.07670
C          2.46328       -2.41769        0.09846
C          5.58784       -4.42624        0.91581
C          5.53883       -5.42858       -0.05839
C          4.57294       -3.47005        0.98714
C          4.45447       -5.49537       -0.93787
C          3.50260       -3.49995        0.08014
C          3.43418       -4.53973       -0.86662
C          2.50328        2.40950       -0.06772
C          5.68926        4.51837        0.63728
C          5.57987        5.63869       -0.28780
C          4.67808        3.49439        0.71331
C          4.39381        5.63613       -1.06047
C          3.55787        3.51248       -0.13075
C          3.42130        4.60348       -1.00589
C          1.04542       -2.83944        0.14085
C          1.08558        2.84394        0.04984
C          0.64523       -4.16683        0.34051
C          0.69929        4.17257        0.26992
C         -0.71663       -4.17806        0.27201
C         -0.66509        4.18139        0.31649
C         -1.12362       -2.85560        0.04995
C         -1.08491        2.86137        0.12818
C         -2.43572       -2.49005       -0.05741
C         -3.40654       -4.63740       -0.98087
C         -3.51414       -3.54397       -0.10333
C         -4.40135       -5.64527       -1.01055
C         -4.63697       -3.46235        0.73204
C         -5.56478       -5.51970       -0.19443
C         -5.64076       -4.42855        0.67267
C         -2.39775        2.49158        0.10268
C         -3.42482        4.54851       -0.88091
C         -3.47155        3.53449        0.08763
C         -4.44395        5.49928       -0.96025
C         -4.55728        3.48782        0.98192
C         -5.52363        5.44352       -0.07577
C         -5.57652        4.44319        0.90154
C         -2.86207       -1.07174       -0.08323
C         -2.84417        1.08292        0.00716
C         -4.18854       -0.65423       -0.24112
C         -4.17892        0.70413       -0.16824
N          2.01507       -0.00774        0.00365
N         -0.03157       -2.01421        0.02917
N          0.00020        2.02526        0.02443
N         -2.03142       -0.00211        0.00043
H          6.33800       -6.15640       -0.13146
H         -6.31699        6.17737       -0.15051
H          5.06398       -1.34162       -0.27941
H          5.07703        1.26226       -0.42558
H          1.27887       -5.03826        0.54955
H          1.34020        5.04793        0.42273
H         -1.34451       -5.05817        0.43527
H         -1.28569        5.05649        0.52245
H         -5.07819       -1.26144       -0.42552
H         -5.05951        1.34304       -0.28028
H          6.41683       -4.37962        1.60969
H          4.61388       -2.69432        1.74253
H          4.41485       -6.27950       -1.68341
H          2.60677       -4.58304       -1.56642
H          6.50899        4.40827        1.32712
H          4.74811        2.67373        1.44065
H          4.23008        6.43799       -1.74792
H          2.55599        4.65303       -1.66929
H         -2.54512       -4.68692       -1.64790
H         -4.25939       -6.46310       -1.70176
H         -4.73526       -2.64714        1.44142
H         -6.49141       -4.34602        1.33232
H         -2.60112        4.57641       -1.58555
H         -4.40038        6.27672       -1.71117
H         -4.60650        2.71318        1.73873
H         -6.40702        4.40557        1.59528
C         -6.77845       -6.40956       -0.22012
O         -6.71063       -7.63472       -0.25425
O         -7.99440       -5.80568       -0.17596
C          6.60560        6.84298       -0.53709
O          7.95093        6.75553       -0.33585
O          6.19507        7.89843       -1.02053
