87
	Energy:     916.7659462
Zn        -0.03304       -0.10397       -0.13759
C          3.90694       -0.73830       -0.60262
C          3.99666        0.59580       -0.48050
C          2.61310       -1.14456       -0.03641
C          2.75145        1.01693        0.14178
C          2.29841       -2.56697        0.16008
C          5.70728       -4.17639        0.79083
C          5.60867       -5.37978        0.07380
C          4.63727       -3.27859        0.81855
C          4.41982       -5.66777       -0.61439
C          3.43808       -3.56306        0.13589
C          3.34823       -4.77106       -0.58581
C          2.43926        2.28456        0.42981
C          5.68764        4.31160        0.48340
C          5.28589        5.49974       -0.12737
C          4.77328        3.26983        0.66332
C          3.96739        5.65129       -0.55735
C          3.43591        3.40371        0.23156
C          3.04623        4.61521       -0.37863
C          1.03254       -2.94340        0.33292
C          1.06847        2.59879        0.83280
C          0.63119       -4.24096        0.59834
C          0.68917        3.82318        1.34536
C         -0.71508       -4.23321        0.62574
C         -0.66081        3.83134        1.36534
C         -1.11212       -2.93112        0.37547
C         -1.06993        2.61161        0.86469
C         -2.37957       -2.54056        0.25197
C         -3.48417       -4.73757       -0.44028
C         -3.52969       -3.52363        0.27978
C         -4.56498       -5.62371       -0.40978
C         -4.69509       -3.22397        1.01653
C         -5.70499       -5.31498        0.33301
C         -5.77045       -4.11633        1.04385
C         -2.45634        2.31314        0.50512
C         -3.05798        4.64739       -0.29034
C         -3.44427        3.44483        0.33470
C         -3.96698        5.69724       -0.44497
C         -4.76701        3.33082        0.80790
C         -5.28413        5.57446        0.02631
C         -5.67459        4.38230        0.65528
C         -2.68618       -1.11581        0.06214
C         -2.79322        1.04806        0.23319
C         -3.99480       -0.69779       -0.45948
C         -4.06421        0.63835       -0.34330
N          1.92837       -0.12759        0.41089
N         -0.03712       -2.10707        0.25328
N         -0.00907        1.79746        0.61565
N         -1.97440       -0.10477        0.47928
H          5.99640        6.30438       -0.26587
H         -6.54013       -6.00314        0.35414
H          4.66976       -1.36693       -1.04212
H          4.83466        1.18267       -0.82686
H          1.23170       -5.12426        0.75514
H          1.32131        4.65849        1.61410
H         -1.31834       -5.10987        0.80676
H         -1.27476        4.67401        1.65275
H         -4.77977       -1.32045       -0.86748
H         -4.90697        1.23325       -0.66350
H          6.61371       -3.92907        1.32926
H          4.74089       -2.36160        1.38501
H          4.32110       -6.58441       -1.18217
H          2.45733       -5.01301       -1.15013
H          6.70922        4.19776        0.82245
H          5.10598        2.36647        1.15787
H          3.65748        6.57304       -1.03255
H          2.03361        4.75386       -0.73411
H         -2.62313       -4.99163       -1.04424
H         -4.51969       -6.54964       -0.96847
H         -4.76525       -2.30345        1.58237
H         -6.65613       -3.87706        1.61815
H         -2.05480        4.76971       -0.67739
H         -3.64048        6.60584       -0.93545
H         -5.09492        2.43311        1.31570
H         -6.68223        4.26414        1.03351
O         -1.52078       -0.24773        1.71421
H         -2.01165        0.09411        2.47687
O          1.51638       -0.27137        1.66029
H          2.03372        0.06731        2.40668
C         -6.25176        6.68853       -0.13461
O         -7.51636        6.56042        0.32334
H         -8.15938        7.27719        0.22645
O         -5.91061        7.72746       -0.68182
C          6.74674       -6.33226        0.03589
O          6.64185       -7.48551       -0.65892
O          7.78532       -6.07544        0.63176
H          8.53794       -6.68418        0.61660
