
     Program PWSCF v.7.5 starts on  1Aug2026 at 19:52:30 

     This program is part of the open-source Quantum ESPRESSO suite
     for quantum simulation of materials; please cite
         "P. Giannozzi et al., J. Phys.:Condens. Matter 21 395502 (2009);
         "P. Giannozzi et al., J. Phys.:Condens. Matter 29 465901 (2017);
         "P. Giannozzi et al., J. Chem. Phys. 152 154105 (2020);
          URL http://www.quantum-espresso.org", 
     in publications or presentations arising from this work. More details at
     http://www.quantum-espresso.org/quote

     Parallel version (MPI), running on     4 processors

     MPI processes distributed on     1 nodes
     0 MiB available memory on the printing compute node when the environment starts

     Reading input from /Users/behnamazizi/Downloads/core level shifts/twistedH2/input/twistedH2.scf.in

     Current dimensions of program PWSCF are:
     Max number of different atomic species (ntypx) = 10
     Max number of k-points (npk) =  40000
     Max angular momentum in pseudopotentials (lmaxx) =  4
     file C.pbe-rrkjus.UPF: wavefunction(s)  2S 2P renormalized
     file H.pbe-rrkjus.UPF: wavefunction(s)  1S renormalized

     IMPORTANT: XC functional enforced from input :
     Exchange-correlation= PBE
                           (   1   4   3   4   0   0   0)
     Any further DFT definition will be discarded
     Please, verify this is what you really want


     gamma-point specific algorithms are used

     R & G space division:  proc/nbgrp/npool/nimage =       4
     Subspace diagonalization in iterative solution of the eigenvalue problem:
     a serial algorithm will be used


     Parallelization info
     --------------------
     sticks:   dense  smooth     PW     G-vecs:    dense   smooth      PW
     Min        7986    5331   1333              1074872   585126   73123
     Max        7989    5334   1336              1074881   585128   73126
     Sum       31949   21329   5337              4299501  2340509  292499

     Using Slab Decomposition



     bravais-lattice index     =            1
     lattice parameter (alat)  =      47.2432  a.u.
     unit-cell volume          =  105442.7265 (a.u.)^3
     number of atoms/cell      =           79
     number of atomic types    =            6
     number of electrons       =       238.00
     number of Kohn-Sham states=          143
     kinetic-energy cutoff     =      30.0000  Ry
     charge density cutoff     =     180.0000  Ry
     scf convergence threshold =      1.0E-06
     mixing beta               =       0.2000
     number of iterations used =           20  local-TF  mixing
     Exchange-correlation= PBE
                           (   1   4   3   4   0   0   0)
     Assuming isolated system, Martyna-Tuckerman method


     celldm(1)=  47.243153  celldm(2)=   0.000000  celldm(3)=   0.000000
     celldm(4)=   0.000000  celldm(5)=   0.000000  celldm(6)=   0.000000

     crystal axes: (cart. coord. in units of alat)
               a(1) = (   1.000000   0.000000   0.000000 )  
               a(2) = (   0.000000   1.000000   0.000000 )  
               a(3) = (   0.000000   0.000000   1.000000 )  

     reciprocal axes: (cart. coord. in units 2 pi/alat)
               b(1) = (  1.000000  0.000000  0.000000 )  
               b(2) = (  0.000000  1.000000  0.000000 )  
               b(3) = (  0.000000  0.000000  1.000000 )  


     PseudoPot. # 1 for Zn read from file:
     /Users/behnamazizi/Downloads/core level shifts/pseudopotential/Zn.pbe-van.UPF
     MD5 check sum: e89cebcf7a22e388733959be9607aa2e
     Pseudo is Ultrasoft, Zval = 12.0
     Generated by new atomic code, or converted to UPF format
     Using radial grid of  869 points,  6 beta functions with: 
                l(1) =   0
                l(2) =   0
                l(3) =   1
                l(4) =   1
                l(5) =   2
                l(6) =   2
     Q(r) pseudized with  8 coefficients,  rinner =    0.800   0.800   0.800
                                                       0.800   0.800

     PseudoPot. # 2 for C  read from file:
     /Users/behnamazizi/Downloads/core level shifts/pseudopotential/C.pbe-rrkjus.UPF
     MD5 check sum: c9ac5a99bc85b198593446162950cd17
     Pseudo is Ultrasoft, Zval =  4.0
     Generated by new atomic code, or converted to UPF format
     Using radial grid of  627 points,  4 beta functions with: 
                l(1) =   0
                l(2) =   0
                l(3) =   1
                l(4) =   1
     Q(r) pseudized with 0 coefficients 


     PseudoPot. # 3 for N  read from file:
     /Users/behnamazizi/Downloads/core level shifts/pseudopotential/N.pbe-van_ak.UPF
     MD5 check sum: 090a72b4b4f32b788c2341547a991be6
     Pseudo is Ultrasoft, Zval =  5.0
     Generated by new atomic code, or converted to UPF format
     Using radial grid of  729 points,  4 beta functions with: 
                l(1) =   0
                l(2) =   0
                l(3) =   1
                l(4) =   1
     Q(r) pseudized with  8 coefficients,  rinner =    0.800   0.800   0.800


     PseudoPot. # 4 for H  read from file:
     /Users/behnamazizi/Downloads/core level shifts/pseudopotential/H.pbe-rrkjus.UPF
     MD5 check sum: 2d52a7f45632fd764c17cc6affed14c8
     Pseudo is Ultrasoft, Zval =  1.0
     Generated by new atomic code, or converted to UPF format
     Using radial grid of 1061 points,  2 beta functions with: 
                l(1) =   0
                l(2) =   0
     Q(r) pseudized with 0 coefficients 


     PseudoPot. # 5 for C  read from file:
     /Users/behnamazizi/Downloads/core level shifts/pseudopotential/C.star1s-pbe-rrkjus.UPF
     MD5 check sum: d6a66a864dce4990f98654a67f8dd415
     Pseudo is Ultrasoft, Zval =  5.0
     Generated by new atomic code, or converted to UPF format
     Using radial grid of 1073 points,  4 beta functions with: 
                l(1) =   0
                l(2) =   0
                l(3) =   1
                l(4) =   1
     Q(r) pseudized with 0 coefficients 


     PseudoPot. # 6 for N  read from file:
     /Users/behnamazizi/Downloads/core level shifts/pseudopotential/N.star1s-pbe-van.UPF
     MD5 check sum: ee94cefccf6368fcf05291e556b07c24
     Pseudo is Ultrasoft, Zval =  6.0
     Generated by new atomic code, or converted to UPF format
     Using radial grid of  729 points,  4 beta functions with: 
                l(1) =   0
                l(2) =   0
                l(3) =   1
                l(4) =   1
     Q(r) pseudized with  8 coefficients,  rinner =    0.800   0.800   0.800


     atomic species   valence    mass     pseudopotential
     Zn               12.00    65.38000     Zn( 1.00)
     C                 4.00    12.01100     C ( 1.00)
     N                 5.00    14.00700     N ( 1.00)
     H                 1.00     1.00800     H ( 1.00)
     Cs                5.00    12.01100     C ( 1.00)
     Ns                6.00    14.00700     N ( 1.00)

     No symmetry found



   Cartesian axes

     site n.     atom                  positions (alat units)
         1        Zn     tau(   1) = (   0.0000000   0.0000000   0.0000000  )
         2        C      tau(   2) = (   0.1650940  -0.0275908  -0.0193920  )
         3        C      tau(   3) = (   0.1651252   0.0274240  -0.0193640  )
         4        C      tau(   4) = (   0.1135944  -0.0442376   0.0003984  )
         5        C      tau(   5) = (   0.1136332   0.0441084   0.0004072  )
         6        C      tau(   6) = (   0.0967724  -0.0972704   0.0114268  )
         7        C      tau(   7) = (   0.2190804  -0.1859028   0.0276248  )
         8        C      tau(   8) = (   0.2005936  -0.2339780   0.0058988  )
         9        C      tau(   9) = (   0.1864624  -0.1406764   0.0281620  )
        10        C      tau(  10) = (   0.1492392  -0.2363228  -0.0162052  )
        11        C      tau(  11) = (   0.1342604  -0.1426244   0.0070712  )
        12        C      tau(  12) = (   0.1164968  -0.1912448  -0.0158136  )
        13        C      tau(  13) = (   0.0968664   0.0971704   0.0112952  )
        14        C      tau(  14) = (   0.2193876   0.1853812   0.0280864  )
        15        C      tau(  15) = (   0.2012360   0.2334456   0.0060616  )
        16        C      tau(  16) = (   0.1865692   0.1402916   0.0285184  )
        17        C      tau(  17) = (   0.1500492   0.2359176  -0.0164144  )
        18        C      tau(  18) = (   0.1345356   0.1423848   0.0070372  )
        19        C      tau(  19) = (   0.1171172   0.1909912  -0.0161192  )
        20        C      tau(  20) = (   0.0438240  -0.1104352   0.0269376  )
        21        C      tau(  21) = (   0.0439124   0.1104832   0.0266132  )
        22        C      tau(  22) = (   0.0272208  -0.1601636   0.0510896  )
        23        C      tau(  23) = (   0.0273344   0.1603668   0.0504428  )
        24        C      tau(  24) = (  -0.0274300  -0.1601644   0.0510644  )
        25        C      tau(  25) = (  -0.0273076   0.1603568   0.0505356  )
        26        C      tau(  26) = (  -0.0440244  -0.1104468   0.0269012  )
        27        C      tau(  27) = (  -0.0439388   0.1104780   0.0267372  )
        28        C      tau(  28) = (  -0.0969780  -0.0972700   0.0114092  )
        29        C      tau(  29) = (  -0.1168448  -0.1912400  -0.0157480  )
        30        C      tau(  30) = (  -0.1345400  -0.1425836   0.0071192  )
        31        C      tau(  31) = (  -0.1496260  -0.2362872  -0.0160824  )
        32        C      tau(  32) = (  -0.1867332  -0.1405656   0.0282376  )
        33        C      tau(  33) = (  -0.2009552  -0.2338768   0.0060740  )
        34        C      tau(  34) = (  -0.2193944  -0.1857644   0.0277684  )
        35        C      tau(  35) = (  -0.0969268   0.0971664   0.0115720  )
        36        C      tau(  36) = (  -0.1176436   0.1910216  -0.0154548  )
        37        C      tau(  37) = (  -0.1347160   0.1422956   0.0076976  )
        38        C      tau(  38) = (  -0.1507916   0.2357928  -0.0154692  )
        39        C      tau(  39) = (  -0.1866060   0.1399056   0.0295036  )
        40        C      tau(  40) = (  -0.2018076   0.2330356   0.0073528  )
        41        C      tau(  41) = (  -0.2196036   0.1848608   0.0294132  )
        42        C      tau(  42) = (  -0.1137176  -0.0442052   0.0003996  )
        43        C      tau(  43) = (  -0.1137056   0.0441316   0.0005468  )
        44        C      tau(  44) = (  -0.1652216  -0.0274868  -0.0193096  )
        45        C      tau(  45) = (  -0.1652264   0.0275272  -0.0191968  )
        46        N      tau(  46) = (   0.0825772  -0.0000480   0.0104792  )
        47        N      tau(  47) = (  -0.0000976  -0.0796072   0.0161180  )
        48        N      tau(  48) = (  -0.0000248   0.0795816   0.0160424  )
        49        N      tau(  49) = (  -0.0826400  -0.0000480   0.0104792  )
        50        H      tau(  50) = (   0.0825772  -0.0000480   0.0440000  )
        51        H      tau(  51) = (  -0.0826400  -0.0000480   0.0440000  )
        52        H      tau(  52) = (   0.2261552  -0.2693024   0.0057440  )
        53        H      tau(  53) = (  -0.2276772   0.2681408   0.0074380  )
        54        H      tau(  54) = (   0.2269252   0.2686748   0.0059772  )
        55        H      tau(  55) = (  -0.2265608  -0.2691824   0.0059424  )
        56        H      tau(  56) = (   0.1976172  -0.0537824  -0.0311376  )
        57        H      tau(  57) = (   0.1976720   0.0535924  -0.0310908  )
        58        H      tau(  58) = (   0.0538336  -0.1907320   0.0666448  )
        59        H      tau(  59) = (   0.0539656   0.1910620   0.0657156  )
        60        H      tau(  60) = (  -0.0540620  -0.1907228   0.0666040  )
        61        H      tau(  61) = (  -0.0538976   0.1910484   0.0658804  )
        62        H      tau(  62) = (  -0.1977668  -0.0536468  -0.0310664  )
        63        H      tau(  63) = (  -0.1977616   0.0537492  -0.0308392  )
        64        H      tau(  64) = (   0.2591376  -0.1837732   0.0448240  )
        65        H      tau(  65) = (   0.2004916  -0.1038240   0.0468556  )
        66        H      tau(  66) = (   0.1341704  -0.2738092  -0.0329300  )
        67        H      tau(  67) = (   0.0763752  -0.1934392  -0.0327792  )
        68        H      tau(  68) = (   0.2592980   0.1831592   0.0456240  )
        69        H      tau(  69) = (   0.2003076   0.1034344   0.0474240  )
        70        H      tau(  70) = (   0.1352960   0.2734220  -0.0333616  )
        71        H      tau(  71) = (   0.0771156   0.1932896  -0.0333364  )
        72        H      tau(  72) = (  -0.0767524  -0.1934620  -0.0327564  )
        73        H      tau(  73) = (  -0.1346360  -0.2737960  -0.0328220  )
        74        H      tau(  74) = (  -0.2007408  -0.1036936   0.0468944  )
        75        H      tau(  75) = (  -0.2594484  -0.1836084   0.0449824  )
        76        H      tau(  76) = (  -0.0777532   0.1935232  -0.0329368  )
        77        H      tau(  77) = (  -0.1364288   0.2733824  -0.0325708  )
        78        H      tau(  78) = (  -0.2000648   0.1029384   0.0483864  )
        79        H      tau(  79) = (  -0.2593812   0.1824368   0.0472240  )

     number of k points=     1  Marzari-Vanderbilt smearing, width (Ry)=  0.0200
                       cart. coord. in units 2pi/alat
        k(    1) = (   0.0000000   0.0000000   0.0000000), wk =   2.0000000

     Dense  grid:  2149751 G-vectors     FFT dimensions: ( 216, 216, 216)

     Smooth grid:  1170255 G-vectors     FFT dimensions: ( 180, 180, 180)

     Estimated max dynamical RAM per process >       2.84 GB

     Estimated total dynamical RAM >      11.34 GB

     Initial potential from superposition of free atoms

     starting charge     235.1114, renormalised to     238.0000

     negative rho (up, down):  3.546E-02 0.000E+00
     Starting wfcs are  228 randomized atomic wfcs

     total cpu time spent up to now is       53.8 secs

     Self-consistent Calculation

     iteration #  1     ecut=    30.00 Ry     beta= 0.20
     Davidson diagonalization with overlap
     ethr =  1.00E-02,  avg # of iterations =  5.0

     negative rho (up, down):  6.859E-03 0.000E+00

     total cpu time spent up to now is      185.1 secs

     total energy              =    -738.16942441 Ry
     estimated scf accuracy    <     129.42961390 Ry

     iteration #  2     ecut=    30.00 Ry     beta= 0.20
     Davidson diagonalization with overlap
     ethr =  1.00E-02,  avg # of iterations =  2.0

     negative rho (up, down):  1.809E-03 0.000E+00

     total cpu time spent up to now is      278.3 secs

     total energy              =    -745.06458095 Ry
     estimated scf accuracy    <      10.05270596 Ry

     iteration #  3     ecut=    30.00 Ry     beta= 0.20
     Davidson diagonalization with overlap
     ethr =  4.22E-03,  avg # of iterations =  1.0

     negative rho (up, down):  6.446E-03 0.000E+00

     total cpu time spent up to now is      368.4 secs

     total energy              =    -741.13980958 Ry
     estimated scf accuracy    <       8.22582006 Ry

     iteration #  4     ecut=    30.00 Ry     beta= 0.20
     Davidson diagonalization with overlap
     ethr =  3.46E-03,  avg # of iterations =  2.0

     negative rho (up, down):  1.347E-03 0.000E+00

     total cpu time spent up to now is      460.6 secs

     total energy              =    -742.08587340 Ry
     estimated scf accuracy    <       1.57254413 Ry

     iteration #  5     ecut=    30.00 Ry     beta= 0.20
     Davidson diagonalization with overlap
     ethr =  6.61E-04,  avg # of iterations =  8.0

     negative rho (up, down):  1.082E-04 0.000E+00

     total cpu time spent up to now is      575.2 secs

     total energy              =    -742.47667810 Ry
     estimated scf accuracy    <       1.48669909 Ry

     iteration #  6     ecut=    30.00 Ry     beta= 0.20
     Davidson diagonalization with overlap
     ethr =  6.25E-04,  avg # of iterations =  1.0

     negative rho (up, down):  8.236E-03 0.000E+00

     total cpu time spent up to now is      665.4 secs

     total energy              =    -742.02986577 Ry
     estimated scf accuracy    <       1.37251662 Ry

     iteration #  7     ecut=    30.00 Ry     beta= 0.20
     Davidson diagonalization with overlap
     ethr =  5.77E-04,  avg # of iterations =  2.0

     negative rho (up, down):  5.787E-04 0.000E+00

     total cpu time spent up to now is      759.2 secs

     total energy              =    -742.04552045 Ry
     estimated scf accuracy    <       0.68337763 Ry

     iteration #  8     ecut=    30.00 Ry     beta= 0.20
     Davidson diagonalization with overlap
     c_bands:  4 eigenvalues not converged
     ethr =  2.87E-04,  avg # of iterations = 20.0

     negative rho (up, down):  1.747E-02 0.000E+00

     total cpu time spent up to now is      878.3 secs

     total energy              =    -741.98084306 Ry
     estimated scf accuracy    <       0.57453891 Ry

     iteration #  9     ecut=    30.00 Ry     beta= 0.20
     Davidson diagonalization with overlap
     ethr =  2.41E-04,  avg # of iterations = 10.0

     negative rho (up, down):  4.839E-01 0.000E+00

     total cpu time spent up to now is      977.6 secs

     total energy              =    -741.92385435 Ry
     estimated scf accuracy    <       0.36288288 Ry

     iteration # 10     ecut=    30.00 Ry     beta= 0.20
     Davidson diagonalization with overlap
     ethr =  1.52E-04,  avg # of iterations =  4.0

     negative rho (up, down):  9.559E-02 0.000E+00

     total cpu time spent up to now is     1079.0 secs

     total energy              =    -741.94616688 Ry
     estimated scf accuracy    <       0.26055257 Ry

     iteration # 11     ecut=    30.00 Ry     beta= 0.20
     Davidson diagonalization with overlap
     ethr =  1.09E-04,  avg # of iterations =  4.0

     negative rho (up, down):  5.404E-01 0.000E+00

     total cpu time spent up to now is     1171.9 secs

     total energy              =    -741.94010843 Ry
     estimated scf accuracy    <       0.20433169 Ry

     iteration # 12     ecut=    30.00 Ry     beta= 0.20
     Davidson diagonalization with overlap
     c_bands:  5 eigenvalues not converged
     ethr =  8.59E-05,  avg # of iterations = 20.0

     negative rho (up, down):  3.758E-01 0.000E+00

     total cpu time spent up to now is     1285.0 secs

     total energy              =    -741.93545626 Ry
     estimated scf accuracy    <       0.19199390 Ry

     iteration # 13     ecut=    30.00 Ry     beta= 0.20
     Davidson diagonalization with overlap
     c_bands:  3 eigenvalues not converged
     ethr =  8.07E-05,  avg # of iterations = 20.0

     negative rho (up, down):  5.774E-01 0.000E+00

     total cpu time spent up to now is     1398.6 secs

     total energy              =    -741.89813277 Ry
     estimated scf accuracy    <       0.15256276 Ry

     iteration # 14     ecut=    30.00 Ry     beta= 0.20
     Davidson diagonalization with overlap
     c_bands:  2 eigenvalues not converged
     ethr =  6.41E-05,  avg # of iterations = 20.0

     negative rho (up, down):  6.760E-01 0.000E+00

     total cpu time spent up to now is     1506.5 secs

     total energy              =    -741.89567375 Ry
     estimated scf accuracy    <       0.10553088 Ry

     iteration # 15     ecut=    30.00 Ry     beta= 0.20
     Davidson diagonalization with overlap
     c_bands:  1 eigenvalues not converged
     ethr =  4.43E-05,  avg # of iterations = 20.0

     negative rho (up, down):  5.149E-01 0.000E+00

     total cpu time spent up to now is     1613.2 secs

     total energy              =    -741.85034087 Ry
     estimated scf accuracy    <       0.08539588 Ry

     iteration # 16     ecut=    30.00 Ry     beta= 0.20
     Davidson diagonalization with overlap
     c_bands:  5 eigenvalues not converged
     ethr =  3.59E-05,  avg # of iterations = 20.0

     negative rho (up, down):  5.876E-01 0.000E+00

     total cpu time spent up to now is     1732.8 secs

     total energy              =    -741.85774526 Ry
     estimated scf accuracy    <       0.02669507 Ry

     iteration # 17     ecut=    30.00 Ry     beta= 0.20
     Davidson diagonalization with overlap
     c_bands:  1 eigenvalues not converged
     ethr =  1.12E-05,  avg # of iterations = 40.0

     negative rho (up, down):  4.453E-01 0.000E+00

     total cpu time spent up to now is     1921.8 secs

     total energy              =    -741.86314593 Ry
     estimated scf accuracy    <       0.02625795 Ry

     iteration # 18     ecut=    30.00 Ry     beta= 0.20
     Davidson diagonalization with overlap
     ethr =  1.10E-05,  avg # of iterations =  1.0

     negative rho (up, down):  2.635E-01 0.000E+00

     total cpu time spent up to now is     2014.4 secs

     total energy              =    -741.85380011 Ry
     estimated scf accuracy    <       0.01740301 Ry

     iteration # 19     ecut=    30.00 Ry     beta= 0.20
     Davidson diagonalization with overlap
     c_bands:  2 eigenvalues not converged
     ethr =  7.31E-06,  avg # of iterations = 20.0

     negative rho (up, down):  2.657E-01 0.000E+00

     total cpu time spent up to now is     2154.6 secs

     total energy              =    -741.85891052 Ry
     estimated scf accuracy    <       0.00612004 Ry

     iteration # 20     ecut=    30.00 Ry     beta= 0.20
     Davidson diagonalization with overlap
     c_bands:  3 eigenvalues not converged
     ethr =  2.57E-06,  avg # of iterations = 20.0

     negative rho (up, down):  2.428E-01 0.000E+00

     total cpu time spent up to now is     2299.1 secs

     total energy              =    -741.85954061 Ry
     estimated scf accuracy    <       0.00811017 Ry

     iteration # 21     ecut=    30.00 Ry     beta= 0.20
     Davidson diagonalization with overlap
     c_bands:  1 eigenvalues not converged
     ethr =  2.57E-06,  avg # of iterations = 20.0

     negative rho (up, down):  1.425E-01 0.000E+00

     total cpu time spent up to now is     2408.5 secs

     total energy              =    -741.85777617 Ry
     estimated scf accuracy    <       0.00673924 Ry

     iteration # 22     ecut=    30.00 Ry     beta= 0.20
     Davidson diagonalization with overlap
     c_bands:  2 eigenvalues not converged
     ethr =  2.57E-06,  avg # of iterations = 40.0

     negative rho (up, down):  1.358E-01 0.000E+00

     total cpu time spent up to now is     2587.2 secs

     total energy              =    -741.85854186 Ry
     estimated scf accuracy    <       0.00459489 Ry

     iteration # 23     ecut=    30.00 Ry     beta= 0.20
     Davidson diagonalization with overlap
     c_bands:  1 eigenvalues not converged
     ethr =  1.93E-06,  avg # of iterations = 20.0

     negative rho (up, down):  9.783E-02 0.000E+00

     total cpu time spent up to now is     2688.6 secs

     total energy              =    -741.85665706 Ry
     estimated scf accuracy    <       0.00410566 Ry

     iteration # 24     ecut=    30.00 Ry     beta= 0.20
     Davidson diagonalization with overlap
     c_bands:  4 eigenvalues not converged
     ethr =  1.73E-06,  avg # of iterations = 20.0

     negative rho (up, down):  8.489E-02 0.000E+00

     total cpu time spent up to now is     2802.0 secs

     total energy              =    -741.85664840 Ry
     estimated scf accuracy    <       0.00113146 Ry

     iteration # 25     ecut=    30.00 Ry     beta= 0.20
     Davidson diagonalization with overlap
     c_bands:  2 eigenvalues not converged
     ethr =  4.75E-07,  avg # of iterations = 20.0

     negative rho (up, down):  8.364E-02 0.000E+00

     total cpu time spent up to now is     2934.2 secs

     total energy              =    -741.85700953 Ry
     estimated scf accuracy    <       0.00061297 Ry

     iteration # 26     ecut=    30.00 Ry     beta= 0.20
     Davidson diagonalization with overlap
     c_bands:  1 eigenvalues not converged
     ethr =  2.58E-07,  avg # of iterations = 20.0

     negative rho (up, down):  7.493E-02 0.000E+00

     total cpu time spent up to now is     3034.7 secs

     total energy              =    -741.85692108 Ry
     estimated scf accuracy    <       0.00051375 Ry

     iteration # 27     ecut=    30.00 Ry     beta= 0.20
     Davidson diagonalization with overlap
     c_bands:  2 eigenvalues not converged
     ethr =  2.16E-07,  avg # of iterations = 20.0

     negative rho (up, down):  7.393E-02 0.000E+00

     total cpu time spent up to now is     3168.2 secs

     total energy              =    -741.85715048 Ry
     estimated scf accuracy    <       0.00040866 Ry

     iteration # 28     ecut=    30.00 Ry     beta= 0.20
     Davidson diagonalization with overlap
     ethr =  1.72E-07,  avg # of iterations =  1.0

     negative rho (up, down):  7.672E-02 0.000E+00

     total cpu time spent up to now is     3262.8 secs

     total energy              =    -741.85699351 Ry
     estimated scf accuracy    <       0.00037904 Ry

     iteration # 29     ecut=    30.00 Ry     beta= 0.20
     Davidson diagonalization with overlap
     ethr =  1.59E-07,  avg # of iterations =  4.0

     negative rho (up, down):  7.664E-02 0.000E+00

     total cpu time spent up to now is     3360.8 secs

     total energy              =    -741.85703525 Ry
     estimated scf accuracy    <       0.00005058 Ry

     iteration # 30     ecut=    30.00 Ry     beta= 0.20
     Davidson diagonalization with overlap
     ethr =  2.13E-08,  avg # of iterations = 10.0

     negative rho (up, down):  7.604E-02 0.000E+00

     total cpu time spent up to now is     3492.5 secs

     total energy              =    -741.85706435 Ry
     estimated scf accuracy    <       0.00002490 Ry

     iteration # 31     ecut=    30.00 Ry     beta= 0.20
     Davidson diagonalization with overlap
     ethr =  1.05E-08,  avg # of iterations =  2.0

     negative rho (up, down):  7.563E-02 0.000E+00

     total cpu time spent up to now is     3586.1 secs

     total energy              =    -741.85706284 Ry
     estimated scf accuracy    <       0.00001411 Ry

     iteration # 32     ecut=    30.00 Ry     beta= 0.20
     Davidson diagonalization with overlap
     ethr =  5.93E-09,  avg # of iterations =  7.0

     negative rho (up, down):  7.579E-02 0.000E+00

     total cpu time spent up to now is     3705.5 secs

     total energy              =    -741.85706840 Ry
     estimated scf accuracy    <       0.00000694 Ry

     iteration # 33     ecut=    30.00 Ry     beta= 0.20
     Davidson diagonalization with overlap
     ethr =  2.91E-09,  avg # of iterations =  4.0

     negative rho (up, down):  7.580E-02 0.000E+00

     total cpu time spent up to now is     3810.6 secs

     total energy              =    -741.85706719 Ry
     estimated scf accuracy    <       0.00000555 Ry

     iteration # 34     ecut=    30.00 Ry     beta= 0.20
     Davidson diagonalization with overlap
     ethr =  2.33E-09,  avg # of iterations =  4.0

     negative rho (up, down):  7.573E-02 0.000E+00

     total cpu time spent up to now is     3906.3 secs

     total energy              =    -741.85706732 Ry
     estimated scf accuracy    <       0.00000210 Ry

     iteration # 35     ecut=    30.00 Ry     beta= 0.20
     Davidson diagonalization with overlap
     ethr =  8.82E-10,  avg # of iterations =  5.0

     negative rho (up, down):  7.577E-02 0.000E+00

     total cpu time spent up to now is     4022.8 secs

     total energy              =    -741.85706821 Ry
     estimated scf accuracy    <       0.00000105 Ry

     iteration # 36     ecut=    30.00 Ry     beta= 0.20
     Davidson diagonalization with overlap
     ethr =  4.41E-10,  avg # of iterations =  4.0

     negative rho (up, down):  7.572E-02 0.000E+00

     total cpu time spent up to now is     4117.4 secs

     total energy              =    -741.85706822 Ry
     estimated scf accuracy    <       0.00000113 Ry

     iteration # 37     ecut=    30.00 Ry     beta= 0.20
     Davidson diagonalization with overlap
     ethr =  4.41E-10,  avg # of iterations =  2.0

     negative rho (up, down):  7.546E-02 0.000E+00

     total cpu time spent up to now is     4184.5 secs

     End of self-consistent calculation

          k = 0.0000 0.0000 0.0000 (146250 PWs)   bands (ev):

   -26.4476 -26.4186 -23.8843 -23.8566 -21.3861 -21.3052 -21.2673 -21.2443
   -20.3395 -20.1931 -20.1792 -19.9487 -19.7940 -19.2815 -18.8359 -18.7066
   -18.3971 -18.3253 -18.2951 -18.2882 -18.2596 -18.1015 -17.9385 -17.6379
   -17.3175 -16.3070 -16.1397 -15.3833 -15.3634 -15.3397 -15.0391 -14.9345
   -14.8652 -14.7550 -14.6720 -14.5713 -14.4945 -14.4476 -14.1095 -13.7911
   -13.7542 -13.6966 -13.4479 -13.4260 -12.8257 -12.8121 -12.6827 -12.6376
   -12.4973 -12.4760 -12.2070 -12.1304 -11.9323 -11.3922 -11.3460 -11.2539
   -11.2534 -11.1900 -11.1106 -11.0079 -10.9895 -10.9191 -10.8969 -10.7876
   -10.7513 -10.6980 -10.5963 -10.3632 -10.2719 -10.2685 -10.2252 -10.1845
   -10.0785 -10.0749 -10.0717 -10.0109  -9.9778  -9.9624  -9.8800  -9.6926
    -9.6538  -9.4762  -9.3223  -9.1413  -9.0857  -9.0100  -9.0055  -8.8962
    -8.8119  -8.6575  -8.5649  -8.4044  -8.2336  -8.2137  -8.1605  -8.1550
    -8.1125  -8.0763  -8.0734  -8.0587  -7.8949  -7.7893  -7.7306  -7.2109
    -6.9281  -6.5787  -6.3814  -6.3053  -6.2839  -6.2566  -6.2340  -6.0539
    -6.0145  -5.9364  -5.9100  -5.8143  -5.1025  -4.7524  -3.3079  -3.0431
    -1.9468  -1.7293  -1.3693  -1.3182  -1.1845  -1.1823  -1.1718  -1.1679
    -1.1007  -1.0802  -0.9534  -0.7585  -0.4704  -0.3894  -0.3662  -0.1894
    -0.1284  -0.1239  -0.0999  -0.0176  -0.0097   0.0031   0.0680

     the Fermi energy is    -3.1501 ev

!    total energy              =    -741.85706787 Ry
     estimated scf accuracy    <       0.00000088 Ry
     smearing contrib. (-TS)   =      -0.00723002 Ry
     internal energy E=F+TS    =    -741.84983785 Ry

     The total energy is F=E-TS. E is the sum of the following terms:
     one-electron contribution =  -13028.91487711 Ry
     hartree contribution      =    6545.46456769 Ry
     xc contribution           =    -214.31208269 Ry
     ewald contribution        =    5955.91255427 Ry

     convergence has been achieved in  37 iterations

     Writing all to output data dir /Users/behnamazizi/Downloads/core level shifts/twistedH2/output/restart_data/twistedh2_cls.save/ :
     XML data file, charge density, pseudopotentials, collected wavefunctions

     init_run     :     27.06s CPU     53.51s WALL (       1 calls)
     electrons    :   2537.40s CPU   4131.10s WALL (       1 calls)

     Called by init_run:
     wfcinit      :     17.84s CPU     32.98s WALL (       1 calls)
     potinit      :      2.86s CPU      5.53s WALL (       1 calls)
     hinit0       :      1.61s CPU      2.75s WALL (       1 calls)

     Called by electrons:
     c_bands      :   1340.86s CPU   2011.38s WALL (      37 calls)
     sum_band     :    373.13s CPU    714.30s WALL (      37 calls)
     v_of_rho     :     80.27s CPU    121.87s WALL (      38 calls)
     newd         :    121.31s CPU    356.53s WALL (      38 calls)
     mix_rho      :    613.29s CPU    915.27s WALL (      37 calls)

     Called by c_bands:
     init_us_2    :      9.63s CPU     26.46s WALL (      75 calls)
     regterg      :   1325.93s CPU   1978.99s WALL (      39 calls)

     Called by *egterg:
     rdiaghg      :     11.15s CPU     16.84s WALL (     482 calls)
     h_psi        :   1080.82s CPU   1611.05s WALL (     483 calls)
     s_psi        :     63.48s CPU     95.90s WALL (     483 calls)
     g_psi        :      1.38s CPU      2.12s WALL (     443 calls)

     Called by h_psi:
     h_psi:calbec :     93.87s CPU    138.91s WALL (     483 calls)
     vloc_psi     :    922.45s CPU   1375.56s WALL (     483 calls)
                                        0.00s GPU  (     483 calls)
     add_vuspsi   :     62.51s CPU     93.36s WALL (     483 calls)

     General routines
     calbec       :    118.12s CPU    174.11s WALL (     520 calls)
     fft          :     83.11s CPU    122.70s WALL (     416 calls)
     ffts         :    467.74s CPU    682.88s WALL (    4503 calls)
     fftw         :   1009.14s CPU   1492.64s WALL (   18068 calls)
     interpolate  :     12.41s CPU     18.27s WALL (      38 calls)

     Parallel routines

     PWSCF        :  42m45.43s CPU      1h 9m WALL


   This run was terminated on:  21: 2:17   1Aug2026            

=------------------------------------------------------------------------------=
   JOB DONE.
=------------------------------------------------------------------------------=
