77  
rutile 110 surface                      
Zn   13.031450   11.826666   14.764711
 C   10.898888   15.466596   14.460025
 C    9.846648   14.584051   14.409251
 C   12.042670   14.732071   14.940840
 C   10.355275   13.314425   14.874094
 C   13.328228   15.252386   15.250331
 C   12.795504   18.962608   15.844772
 C   13.973631   19.496990   15.313751
 C   12.582337   17.585939   15.844069
 C   14.944781   18.639830   14.789003
 C   13.539619   16.706488   15.297570
 C   14.727708   17.265886   14.773577
 C    9.596137   12.165318   15.222931
 C    6.222935   13.518452   16.305817
 C    5.369098   12.472735   15.936277
 C    7.590015   13.429713   16.056816
 C    5.895688   11.340758   15.310350
 C    8.141007   12.291255   15.425606
 C    7.261304   11.252636   15.053710
 C   14.456367   14.428831   15.511492
 C   10.196863   10.907890   15.508858
 C   15.634165   14.863563   16.216681
 C    9.561796    9.831223   16.224424
 C   16.510912   13.814367   16.212580
 C   10.441197    8.784060   16.228779
 C   15.875789   12.741562   15.491360
 C   11.618371    9.221495   15.523800
 C   16.475107   11.485570   15.197838
 C   18.815073   12.394846   15.060302
 C   17.928335   11.352603   15.404972
 C   20.178955   12.293333   15.320769
 C   18.470846   10.199007   16.015318
 C   20.697405   11.142955   15.919611
 C   19.836426   10.094592   16.263601
 C   12.745284    8.399653   15.254068
 C   11.353646    6.370196   14.811890
 C   12.543071    6.944817   15.315274
 C   11.150356    4.994204   14.841004
 C   13.515770    6.079001   15.856005
 C   12.136504    4.150304   15.359320
 C   13.316601    4.700149   15.870195
 C   15.712557   10.340213   14.840712
 C   14.025990    8.921761   14.923697
 C   16.215143    9.073192   14.363465
 C   15.163293    8.189664   14.425146
 H    4.297649   12.543351   16.135717
 H   21.768122   11.060740   16.118475
 H   10.912084   16.512354   14.169084
 H    8.817718   14.781562   14.111307
 H   15.755336   15.830155   16.695658
 H    8.587266    9.880107   16.698828
 H   17.483141   13.762074   16.691534
 H   10.321535    7.816564   16.706324
 H   17.240557    8.875680   14.052839
 H   15.148934    7.143604   14.135236
 H   12.041833   19.626007   16.273506
 H   11.678206   17.173107   16.294073
 H   15.869577   19.046881   14.373423
 H   15.464043   16.602982   14.317492
 H   11.991922    3.069015   15.357131
 H    5.821646   14.401414   16.806698
 H    8.253798   14.228692   16.388998
 H    5.240378   10.529546   14.987942
 H    7.648454   10.385220   14.519187
 H   18.435272   13.276295   14.543692
 H   20.840025   13.109569   15.023395
 H   17.800589    9.398814   16.330584
 H   20.230425    9.197259   16.744024
 H   10.606240    7.021788   14.357569
 H   10.225849    4.574468   14.438408
 H   14.420932    6.504362   16.291655
 H   14.082423    4.047680   16.293497
 H   14.127907   20.577101   15.301937
 N   11.705259   13.415435   15.116071
 N   14.604805   13.120255   15.116926
 N   11.467910   10.531654   15.134048
 N   14.365075   10.238111   15.096990
