77 
rutile 110 surface                      
Zn    9.754012   14.786240   15.720905
 C    5.602816   15.719533   15.344182
 C    5.520224   14.356364   15.321199
 C    6.969590   16.051199   15.645131
 C    6.835226   13.849642   15.614295
 C    7.452768   17.366514   15.833124
 C    4.410995   19.282383   17.032082
 C    4.503971   20.457674   16.278137
 C    5.370611   18.281479   16.888979
 C    5.566783   20.626442   15.385785
 C    6.446309   18.437960   15.991079
 C    6.530037   19.627848   15.248059
 C    7.157486   12.482149   15.773865
 C    3.846654   10.911148   16.758217
 C    3.840610    9.753855   15.971632
 C    4.930335   11.787071   16.708736
 C    4.937224    9.471477   15.151266
 C    6.033087   11.525777   15.869609
 C    6.023233   10.343917   15.107477
 C    8.821681   17.710337   15.917032
 C    8.479644   11.986209   15.878809
 C    9.320539   19.007191   16.293463
 C    8.822347   10.640158   16.257286
 C   10.685708   18.931847   16.273762
 C   10.187491   10.563743   16.275742
 C   11.028572   17.587862   15.887978
 C   10.687338   11.862324   15.905924
 C   12.350957   17.093908   15.777098
 C   13.472868   19.236980   15.107818
 C   13.473209   18.053913   15.868329
 C   14.550797   20.119379   15.152300
 C   14.580148   17.799366   16.704144
 C   15.650341   19.845118   15.971431
 C   15.655919   18.685274   16.754267
 C   12.056590   12.207587   15.825920
 C   12.984037    9.948089   15.238391
 C   13.063890   11.136519   15.984130
 C   13.948010    8.950103   15.376074
 C   14.136598   11.291207   16.886112
 C   15.007292    9.117074   16.272762
 C   15.096121   10.290397   17.030355
 C   12.673173   15.726724   15.615164
 C   12.539465   13.524267   15.642338
 C   13.987844   15.220996   15.320124
 C   13.906051   13.857735   15.341370
 H    3.748639   21.238811   16.386354
 H   15.763090    8.336499   16.382004
 H    4.820619   16.441259   15.132328
 H    4.655573   13.744622   15.085508
 H    8.706588   19.856180   16.576822
 H    8.110991    9.862371   16.516167
 H   11.397068   19.708338   16.536539
 H   10.801035    9.712554   16.553387
 H   14.851850   15.833550   15.083899
 H   14.688601   13.136852   15.127632
 H    3.589166   19.147429   17.737930
 H    5.305347   17.368874   17.483707
 H    5.644479   21.528303   14.776255
 H    7.336756   19.748940   14.527130
 H    3.003521   11.130651   17.416063
 H    4.937552   12.684011   17.330126
 H    4.955378    8.575352   14.527920
 H    6.858607   10.131274   14.444475
 H   12.634208   19.444145   14.447199
 H   14.523746   21.016901   14.531321
 H   14.581916   16.901043   17.323586
 H   16.501905   18.471764   17.410410
 H   12.179646    9.827665   14.514986
 H   13.873175    8.049682   14.764067
 H   14.199798   12.202624   17.482944
 H   15.915067   10.424294   17.739822
 H    2.985956    9.074739   16.002504
 H   16.498312   20.532482   16.004299
 N    7.715775   14.899908   15.762833
 N    9.878418   16.852085   15.687405
 N    9.630391   12.721884   15.680327
 N   11.793119   14.675407   15.763002
