
     Program PWSCF v.7.5 starts on 31Jul2026 at 23:17:27 

     This program is part of the open-source Quantum ESPRESSO suite
     for quantum simulation of materials; please cite
         "P. Giannozzi et al., J. Phys.:Condens. Matter 21 395502 (2009);
         "P. Giannozzi et al., J. Phys.:Condens. Matter 29 465901 (2017);
         "P. Giannozzi et al., J. Chem. Phys. 152 154105 (2020);
          URL http://www.quantum-espresso.org", 
     in publications or presentations arising from this work. More details at
     http://www.quantum-espresso.org/quote

     Parallel version (MPI), running on     4 processors

     MPI processes distributed on     1 nodes
     0 MiB available memory on the printing compute node when the environment starts

     Reading input from planar.scf.in

     Current dimensions of program PWSCF are:
     Max number of different atomic species (ntypx) = 10
     Max number of k-points (npk) =  40000
     Max angular momentum in pseudopotentials (lmaxx) =  4
     file C.pbe-rrkjus.UPF: wavefunction(s)  2S 2P renormalized
     file H.pbe-rrkjus.UPF: wavefunction(s)  1S renormalized

     IMPORTANT: XC functional enforced from input :
     Exchange-correlation= PBE
                           (   1   4   3   4   0   0   0)
     Any further DFT definition will be discarded
     Please, verify this is what you really want


     gamma-point specific algorithms are used

     R & G space division:  proc/nbgrp/npool/nimage =       4
     Subspace diagonalization in iterative solution of the eigenvalue problem:
     a serial algorithm will be used


     Parallelization info
     --------------------
     sticks:   dense  smooth     PW     G-vecs:    dense   smooth      PW
     Min        7986    5331   1333              1074872   585126   73123
     Max        7989    5334   1336              1074881   585128   73126
     Sum       31949   21329   5337              4299501  2340509  292499

     Using Slab Decomposition



     bravais-lattice index     =            1
     lattice parameter (alat)  =      47.2432  a.u.
     unit-cell volume          =  105442.7265 (a.u.)^3
     number of atoms/cell      =           77
     number of atomic types    =            6
     number of electrons       =       236.00
     number of Kohn-Sham states=          142
     kinetic-energy cutoff     =      30.0000  Ry
     charge density cutoff     =     180.0000  Ry
     scf convergence threshold =      1.0E-08
     mixing beta               =       0.1000
     number of iterations used =           20  local-TF  mixing
     Exchange-correlation= PBE
                           (   1   4   3   4   0   0   0)
     Assuming isolated system, Martyna-Tuckerman method


     celldm(1)=  47.243153  celldm(2)=   0.000000  celldm(3)=   0.000000
     celldm(4)=   0.000000  celldm(5)=   0.000000  celldm(6)=   0.000000

     crystal axes: (cart. coord. in units of alat)
               a(1) = (   1.000000   0.000000   0.000000 )  
               a(2) = (   0.000000   1.000000   0.000000 )  
               a(3) = (   0.000000   0.000000   1.000000 )  

     reciprocal axes: (cart. coord. in units 2 pi/alat)
               b(1) = (  1.000000  0.000000  0.000000 )  
               b(2) = (  0.000000  1.000000  0.000000 )  
               b(3) = (  0.000000  0.000000  1.000000 )  


     PseudoPot. # 1 for Zn read from file:
     /Users/behnamazizi/Documents/predoc exam/planar_cls/pseudo/Zn.pbe-van.UPF
     MD5 check sum: e89cebcf7a22e388733959be9607aa2e
     Pseudo is Ultrasoft, Zval = 12.0
     Generated by new atomic code, or converted to UPF format
     Using radial grid of  869 points,  6 beta functions with: 
                l(1) =   0
                l(2) =   0
                l(3) =   1
                l(4) =   1
                l(5) =   2
                l(6) =   2
     Q(r) pseudized with  8 coefficients,  rinner =    0.800   0.800   0.800
                                                       0.800   0.800

     PseudoPot. # 2 for C  read from file:
     /Users/behnamazizi/Documents/predoc exam/planar_cls/pseudo/C.pbe-rrkjus.UPF
     MD5 check sum: c9ac5a99bc85b198593446162950cd17
     Pseudo is Ultrasoft, Zval =  4.0
     Generated by new atomic code, or converted to UPF format
     Using radial grid of  627 points,  4 beta functions with: 
                l(1) =   0
                l(2) =   0
                l(3) =   1
                l(4) =   1
     Q(r) pseudized with 0 coefficients 


     PseudoPot. # 3 for N  read from file:
     /Users/behnamazizi/Documents/predoc exam/planar_cls/pseudo/N.pbe-van_ak.UPF
     MD5 check sum: 090a72b4b4f32b788c2341547a991be6
     Pseudo is Ultrasoft, Zval =  5.0
     Generated by new atomic code, or converted to UPF format
     Using radial grid of  729 points,  4 beta functions with: 
                l(1) =   0
                l(2) =   0
                l(3) =   1
                l(4) =   1
     Q(r) pseudized with  8 coefficients,  rinner =    0.800   0.800   0.800


     PseudoPot. # 4 for H  read from file:
     /Users/behnamazizi/Documents/predoc exam/planar_cls/pseudo/H.pbe-rrkjus.UPF
     MD5 check sum: 2d52a7f45632fd764c17cc6affed14c8
     Pseudo is Ultrasoft, Zval =  1.0
     Generated by new atomic code, or converted to UPF format
     Using radial grid of 1061 points,  2 beta functions with: 
                l(1) =   0
                l(2) =   0
     Q(r) pseudized with 0 coefficients 


     PseudoPot. # 5 for C  read from file:
     /Users/behnamazizi/Documents/predoc exam/planar_cls/pseudo/C.star1s-pbe-rrkjus.UPF
     MD5 check sum: d6a66a864dce4990f98654a67f8dd415
     Pseudo is Ultrasoft, Zval =  5.0
     Generated by new atomic code, or converted to UPF format
     Using radial grid of 1073 points,  4 beta functions with: 
                l(1) =   0
                l(2) =   0
                l(3) =   1
                l(4) =   1
     Q(r) pseudized with 0 coefficients 


     PseudoPot. # 6 for N  read from file:
     /Users/behnamazizi/Documents/predoc exam/planar_cls/pseudo/N.star1s-pbe-van.UPF
     MD5 check sum: ee94cefccf6368fcf05291e556b07c24
     Pseudo is Ultrasoft, Zval =  6.0
     Generated by new atomic code, or converted to UPF format
     Using radial grid of  729 points,  4 beta functions with: 
                l(1) =   0
                l(2) =   0
                l(3) =   1
                l(4) =   1
     Q(r) pseudized with  8 coefficients,  rinner =    0.800   0.800   0.800


     atomic species   valence    mass     pseudopotential
     Zn               12.00    65.38000     Zn( 1.00)
     C                 4.00    12.01100     C ( 1.00)
     N                 5.00    14.00700     N ( 1.00)
     H                 1.00     1.00800     H ( 1.00)
     Cs                5.00    12.01100     C ( 1.00)
     Ns                6.00    14.00700     N ( 1.00)

     No symmetry found



   Cartesian axes

     site n.     atom                  positions (alat units)
         1        Zn     tau(   1) = (   0.0000000   0.0000000   0.0000000  )
         2        C      tau(   2) = (   0.1693004  -0.0282640  -0.0063832  )
         3        C      tau(   3) = (   0.1696512   0.0262052  -0.0094988  )
         4        C      tau(   4) = (   0.1146236  -0.0444744   0.0013412  )
         5        C      tau(   5) = (   0.1152260   0.0437964  -0.0029468  )
         6        C      tau(   6) = (   0.0973420  -0.0982484   0.0039844  )
         7        C      tau(   7) = (   0.2233860  -0.1769064   0.0364548  )
         8        C      tau(   8) = (   0.2217432  -0.2169880  -0.0024660  )
         9        C      tau(   9) = (   0.1825104  -0.1389692   0.0394976  )
        10        C      tau(  10) = (   0.1782204  -0.2195304  -0.0375676  )
        11        C      tau(  11) = (   0.1392016  -0.1402556   0.0035916  )
        12        C      tau(  12) = (   0.1372868  -0.1816780  -0.0345772  )
        13        C      tau(  13) = (   0.0987888   0.0979136  -0.0029400  )
        14        C      tau(  14) = (   0.2247984   0.1777184   0.0269616  )
        15        C      tau(  15) = (   0.2198300   0.2204836  -0.0086928  )
        16        C      tau(  16) = (   0.1854420   0.1382296   0.0291460  )
        17        C      tau(  17) = (   0.1751260   0.2234012  -0.0421476  )
        18        C      tau(  18) = (   0.1407872   0.1398088  -0.0051720  )
        19        C      tau(  19) = (   0.1364156   0.1831464  -0.0409940  )
        20        C      tau(  20) = (   0.0433580  -0.1148048   0.0045908  )
        21        C      tau(  21) = (   0.0448680   0.1148900   0.0006596  )
        22        C      tau(  22) = (   0.0261572  -0.1688644   0.0143884  )
        23        C      tau(  23) = (   0.0283732   0.1690572   0.0113988  )
        24        C      tau(  24) = (  -0.0283980  -0.1689800   0.0120412  )
        25        C      tau(  25) = (  -0.0261720   0.1689532   0.0137548  )
        26        C      tau(  26) = (  -0.0448952  -0.1148892   0.0008996  )
        27        C      tau(  27) = (  -0.0433688   0.1148164   0.0043120  )
        28        C      tau(  28) = (  -0.0988484  -0.0979444  -0.0028272  )
        29        C      tau(  29) = (  -0.1361008  -0.1835860  -0.0403684  )
        30        C      tau(  30) = (  -0.1407916  -0.1398900  -0.0050004  )
        31        C      tau(  31) = (  -0.1746784  -0.2239720  -0.0413052  )
        32        C      tau(  32) = (  -0.1856576  -0.1381164   0.0290348  )
        33        C      tau(  33) = (  -0.2196468  -0.2207972  -0.0082260  )
        34        C      tau(  34) = (  -0.2249452  -0.1776764   0.0269328  )
        35        C      tau(  35) = (  -0.0973492   0.0982372   0.0037532  )
        36        C      tau(  36) = (  -0.1370368   0.1814720  -0.0353560  )
        37        C      tau(  37) = (  -0.1391240   0.1403128   0.0030812  )
        38        C      tau(  38) = (  -0.1776548   0.2196504  -0.0384028  )
        39        C      tau(  39) = (  -0.1823796   0.1394916   0.0390560  )
        40        C      tau(  40) = (  -0.2210864   0.2176324  -0.0031700  )
        41        C      tau(  41) = (  -0.2229868   0.1777140   0.0359092  )
        42        C      tau(  42) = (  -0.1152976  -0.0438240  -0.0028712  )
        43        C      tau(  43) = (  -0.1146500   0.0444640   0.0013400  )
        44        C      tau(  44) = (  -0.1697396  -0.0261956  -0.0093032  )
        45        C      tau(  45) = (  -0.1693516   0.0282752  -0.0062316  )
        46        N      tau(  46) = (   0.0820692  -0.0000168   0.0031004  )
        47        N      tau(  47) = (  -0.0005676  -0.0822396  -0.0028048  )
        48        N      tau(  48) = (   0.0005424   0.0822176  -0.0028392  )
        49        N      tau(  49) = (  -0.0821100  -0.0000168   0.0031004  )
        50        H      tau(  50) = (   0.2502532   0.2518076  -0.0098000  )
        51        H      tau(  51) = (  -0.2499920  -0.2522000  -0.0092008  )
        52        H      tau(  52) = (   0.2539524  -0.2462584  -0.0057836  )
        53        H      tau(  53) = (  -0.2530568   0.2471548  -0.0065260  )
        54        H      tau(  54) = (   0.2029144  -0.0550756  -0.0120452  )
        55        H      tau(  55) = (   0.2035068   0.0517416  -0.0187368  )
        56        H      tau(  56) = (   0.0524668  -0.2022452   0.0232340  )
        57        H      tau(  57) = (   0.0550736   0.2026932   0.0176608  )
        58        H      tau(  58) = (  -0.0550848  -0.2025740   0.0185636  )
        59        H      tau(  59) = (  -0.0524808   0.2023956   0.0223576  )
        60        H      tau(  60) = (  -0.2036288  -0.0517008  -0.0184752  )
        61        H      tau(  61) = (  -0.2029704   0.0551056  -0.0118064  )
        62        H      tau(  62) = (   0.2566936  -0.1751020   0.0646404  )
        63        H      tau(  63) = (   0.1838356  -0.1077108   0.0699476  )
        64        H      tau(  64) = (   0.1767236  -0.2514744  -0.0672640  )
        65        H      tau(  65) = (   0.1036480  -0.1830224  -0.0622824  )
        66        H      tau(  66) = (   0.2591444   0.1754684   0.0538188  )
        67        H      tau(  67) = (   0.1886632   0.1058540   0.0582232  )
        68        H      tau(  68) = (   0.1695232   0.2576500  -0.0685892  )
        69        H      tau(  69) = (   0.1015408   0.1859788  -0.0670404  )
        70        H      tau(  70) = (  -0.1010244  -0.1866432  -0.0661272  )
        71        H      tau(  71) = (  -0.1687368  -0.2585272  -0.0672660  )
        72        H      tau(  72) = (  -0.1891048  -0.1055324   0.0578468  )
        73        H      tau(  73) = (  -0.2594956  -0.1752136   0.0535144  )
        74        H      tau(  74) = (  -0.1034524   0.1823800  -0.0631608  )
        75        H      tau(  75) = (  -0.1760104   0.2514444  -0.0682472  )
        76        H      tau(  76) = (  -0.1838524   0.1084028   0.0696716  )
        77        H      tau(  77) = (  -0.2562544   0.1762872   0.0641620  )

     number of k points=     1  Marzari-Vanderbilt smearing, width (Ry)=  0.0100
                       cart. coord. in units 2pi/alat
        k(    1) = (   0.0000000   0.0000000   0.0000000), wk =   2.0000000

     Dense  grid:  2149751 G-vectors     FFT dimensions: ( 216, 216, 216)

     Smooth grid:  1170255 G-vectors     FFT dimensions: ( 180, 180, 180)

     Estimated max dynamical RAM per process >       2.83 GB

     Estimated total dynamical RAM >      11.33 GB

     Initial potential from superposition of free atoms

     starting charge     233.3038, renormalised to     236.0000

     negative rho (up, down):  3.523E-02 0.000E+00
     Starting wfcs are  226 randomized atomic wfcs

     total cpu time spent up to now is        9.3 secs

     Self-consistent Calculation

     iteration #  1     ecut=    30.00 Ry     beta= 0.10
     Davidson diagonalization with overlap
     ethr =  1.00E-02,  avg # of iterations =  5.0

     negative rho (up, down):  1.616E-02 0.000E+00

     total cpu time spent up to now is       36.5 secs

     total energy              =    -743.16060470 Ry
     estimated scf accuracy    <     135.69611512 Ry

     iteration #  2     ecut=    30.00 Ry     beta= 0.10
     Davidson diagonalization with overlap
     ethr =  1.00E-02,  avg # of iterations =  1.0

     negative rho (up, down):  7.935E-03 0.000E+00

     total cpu time spent up to now is       56.4 secs

     total energy              =    -744.22613436 Ry
     estimated scf accuracy    <      19.78611207 Ry

     iteration #  3     ecut=    30.00 Ry     beta= 0.10
     Davidson diagonalization with overlap
     ethr =  8.38E-03,  avg # of iterations =  1.0

     negative rho (up, down):  5.923E-02 0.000E+00

     total cpu time spent up to now is       75.9 secs

     total energy              =    -740.92900876 Ry
     estimated scf accuracy    <      15.69200735 Ry

     iteration #  4     ecut=    30.00 Ry     beta= 0.10
     Davidson diagonalization with overlap
     ethr =  6.65E-03,  avg # of iterations =  1.0

     negative rho (up, down):  7.621E-02 0.000E+00

     total cpu time spent up to now is       97.1 secs

     total energy              =    -740.07719215 Ry
     estimated scf accuracy    <       4.81979353 Ry

     iteration #  5     ecut=    30.00 Ry     beta= 0.10
     Davidson diagonalization with overlap
     ethr =  2.04E-03,  avg # of iterations =  4.0

     negative rho (up, down):  6.013E-02 0.000E+00

     total cpu time spent up to now is      118.9 secs

     total energy              =    -740.31627163 Ry
     estimated scf accuracy    <       2.14587676 Ry

     iteration #  6     ecut=    30.00 Ry     beta= 0.10
     Davidson diagonalization with overlap
     ethr =  9.09E-04,  avg # of iterations =  9.0

     negative rho (up, down):  2.428E-02 0.000E+00

     total cpu time spent up to now is      142.2 secs

     total energy              =    -740.50018455 Ry
     estimated scf accuracy    <       1.98096863 Ry

     iteration #  7     ecut=    30.00 Ry     beta= 0.10
     Davidson diagonalization with overlap
     ethr =  8.39E-04,  avg # of iterations =  2.0

     negative rho (up, down):  9.028E-03 0.000E+00

     total cpu time spent up to now is      164.1 secs

     total energy              =    -740.06105792 Ry
     estimated scf accuracy    <       1.65822358 Ry

     iteration #  8     ecut=    30.00 Ry     beta= 0.10
     Davidson diagonalization with overlap
     ethr =  7.03E-04,  avg # of iterations =  5.0

     negative rho (up, down):  1.463E-02 0.000E+00

     total cpu time spent up to now is      186.2 secs

     total energy              =    -740.07125914 Ry
     estimated scf accuracy    <       1.00080082 Ry

     iteration #  9     ecut=    30.00 Ry     beta= 0.10
     Davidson diagonalization with overlap
     c_bands:  2 eigenvalues not converged
     ethr =  4.24E-04,  avg # of iterations = 20.0

     negative rho (up, down):  1.103E-04 0.000E+00

     total cpu time spent up to now is      211.9 secs

     total energy              =    -740.08190183 Ry
     estimated scf accuracy    <       0.75631271 Ry

     iteration # 10     ecut=    30.00 Ry     beta= 0.10
     Davidson diagonalization with overlap
     ethr =  3.20E-04,  avg # of iterations =  2.0

     negative rho (up, down):  5.648E-01 0.000E+00

     total cpu time spent up to now is      233.0 secs

     total energy              =    -739.95453052 Ry
     estimated scf accuracy    <       0.54659588 Ry

     iteration # 11     ecut=    30.00 Ry     beta= 0.10
     Davidson diagonalization with overlap
     ethr =  2.32E-04,  avg # of iterations =  5.0

     negative rho (up, down):  4.558E-01 0.000E+00

     total cpu time spent up to now is      258.5 secs

     total energy              =    -740.03505631 Ry
     estimated scf accuracy    <       0.37528087 Ry

     iteration # 12     ecut=    30.00 Ry     beta= 0.10
     Davidson diagonalization with overlap
     c_bands:  3 eigenvalues not converged
     ethr =  1.59E-04,  avg # of iterations = 20.0

     negative rho (up, down):  3.399E-01 0.000E+00

     total cpu time spent up to now is      285.4 secs

     total energy              =    -739.96792964 Ry
     estimated scf accuracy    <       0.35592038 Ry

     iteration # 13     ecut=    30.00 Ry     beta= 0.10
     Davidson diagonalization with overlap
     c_bands:  1 eigenvalues not converged
     ethr =  1.51E-04,  avg # of iterations = 20.0

     negative rho (up, down):  6.129E-01 0.000E+00

     total cpu time spent up to now is      312.4 secs

     total energy              =    -739.99999232 Ry
     estimated scf accuracy    <       0.20801429 Ry

     iteration # 14     ecut=    30.00 Ry     beta= 0.10
     Davidson diagonalization with overlap
     ethr =  8.81E-05,  avg # of iterations =  4.0

     negative rho (up, down):  5.231E-01 0.000E+00

     total cpu time spent up to now is      336.8 secs

     total energy              =    -740.00292075 Ry
     estimated scf accuracy    <       0.21058260 Ry

     iteration # 15     ecut=    30.00 Ry     beta= 0.10
     Davidson diagonalization with overlap
     ethr =  8.81E-05,  avg # of iterations =  1.0

     negative rho (up, down):  3.552E-01 0.000E+00

     total cpu time spent up to now is      360.1 secs

     total energy              =    -739.96964501 Ry
     estimated scf accuracy    <       0.17853710 Ry

     iteration # 16     ecut=    30.00 Ry     beta= 0.10
     Davidson diagonalization with overlap
     ethr =  7.57E-05,  avg # of iterations =  2.0

     negative rho (up, down):  6.471E-01 0.000E+00

     total cpu time spent up to now is      384.4 secs

     total energy              =    -739.96250463 Ry
     estimated scf accuracy    <       0.16967282 Ry

     iteration # 17     ecut=    30.00 Ry     beta= 0.10
     Davidson diagonalization with overlap
     ethr =  7.19E-05,  avg # of iterations =  2.0

     negative rho (up, down):  4.254E-01 0.000E+00

     total cpu time spent up to now is      408.7 secs

     total energy              =    -739.94640487 Ry
     estimated scf accuracy    <       0.12248318 Ry

     iteration # 18     ecut=    30.00 Ry     beta= 0.10
     Davidson diagonalization with overlap
