<UPF version="2.0.1">
<PP_INFO>
Generated by new atomic code, or converted to UPF format
Author:
Generation date:
Pseudopotential type: US
Element: C
Functional:  SLA  PW   PBX  PBC
Suggested minimum cutoff for wavefunctions:  25. Ry
Suggested minimum cutoff for charge density: 150. Ry
The Pseudo was generated with a Non-Relativistic Calculation
L component and cutoff radius for Local Potential:  0   0.0000
Valence configuration:
nl pn  l   occ       Rcut    Rcut US       E pseu
2S  0  0  2.00      1.400      1.600     0.000000
2P  0  1  2.00      1.400      1.600     0.000000
Generation configuration: not available.
</PP_INFO>
<!--
END OF HUMAN READABLE SECTION
-->
<PP_HEADER generated="Generated by new atomic code, or converted to UPF format" author="" date="" comment="" element="C " pseudo_type="US" relativistic="no" is_ultrasoft="true" is_paw="false" is_coulomb="false" has_so="false" has_wfc="false" has_gipaw="false" paw_as_gipaw="false" core_correction="false" functional=" SLA  PW   PBX  PBC" z_valence="5.000000000000e0" total_psenergy="-1.767404548958e1" wfc_cutoff="2.500000000000e1" rho_cutoff="1.500000000000e2" l_max="2" l_max_rho="0" l_local="0" mesh_size="1073" number_of_wfc="2" number_of_proj="4"/>
<PP_MESH dx="1.250000000000e-2" mesh="1073" xmin="-7.000000000003e0" rmax="1.003075063120e2" zmesh="6.000000000000e0">
<PP_R>
1.519803275920000e-4 1.538920047780000e-4 1.558277279030000e-4 1.577877994270000e-4
1.597725256160000e-4 1.617822165870000e-4 1.638171863580000e-4 1.658777528980000e-4
1.679642381750000e-4 1.700769682050000e-4 1.722162731080000e-4 1.743824871540000e-4
1.765759488180000e-4 1.787970008330000e-4 1.810459902440000e-4 1.833232684590000e-4
1.856291913070000e-4 1.879641190950000e-4 1.903284166580000e-4 1.927224534240000e-4
1.951466034650000e-4 1.976012455600000e-4 2.000867632520000e-4 2.026035449070000e-4
2.051519837790000e-4 2.077324780650000e-4 2.103454309740000e-4 2.129912507840000e-4
2.156703509110000e-4 2.183831499690000e-4 2.211300718380000e-4 2.239115457310001e-4
2.267280062580000e-4 2.295798934980000e-4 2.324676530630000e-4 2.353917361710000e-4
2.383525997180000e-4 2.413507063430000e-4 2.443865245070000e-4 2.474605285630000e-4
2.505731988300000e-4 2.537250216680000e-4 2.569164895579999e-4 2.601481011720000e-4
2.634203614560000e-4 2.667337817070000e-4 2.700888796550000e-4 2.734861795390000e-4
2.769262121960000e-4 2.804095151360000e-4 2.839366326340000e-4 2.875081158080000e-4
2.911245227100000e-4 2.947864184110000e-4 2.984943750900000e-4 3.022489721220000e-4
3.060507961710000e-4 3.099004412800000e-4 3.137985089630000e-4 3.177456083020000e-4
3.217423560380000e-4 3.257893766720000e-4 3.298873025590000e-4 3.340367740080000e-4
3.382384393830000e-4 3.424929552020000e-4 3.468009862420000e-4 3.511632056409999e-4
3.555802950060000e-4 3.600529445160000e-4 3.645818530300000e-4 3.691677282010000e-4
3.738112865810001e-4 3.785132537350000e-4 3.832743643540000e-4 3.880953623730000e-4
3.929770010820000e-4 3.979200432460000e-4 4.029252612270000e-4 4.079934371000000e-4
4.131253627780000e-4 4.183218401340000e-4 4.235836811280000e-4 4.289117079350000e-4
4.343067530680000e-4 4.397696595149999e-4 4.453012808670000e-4 4.509024814490000e-4
4.565741364610000e-4 4.623171321120000e-4 4.681323657540000e-4 4.740207460310001e-4
4.799831930150000e-4 4.860206383480000e-4 4.921340253960000e-4 4.983243093860001e-4
5.045924575630000e-4 5.109394493380001e-4 5.173662764420000e-4 5.238739430790000e-4
5.304634660850001e-4 5.371358750870002e-4 5.438922126629999e-4 5.507335345030000e-4
5.576609095789999e-4 5.646754203060000e-4 5.717781627159999e-4 5.789702466280000e-4
5.862527958189999e-4 5.936269482010001e-4 6.010938560029999e-4 6.086546859419999e-4
6.163106194140001e-4 6.240628526740000e-4 6.319125970249999e-4 6.398610790039999e-4
6.479095405790001e-4 6.560592393380000e-4 6.643114486879998e-4 6.726674580530000e-4
6.811285730770001e-4 6.896961158270000e-4 6.983714249969999e-4 7.071558561240000e-4
7.160507817920001e-4 7.250575918510000e-4 7.341776936350000e-4 7.434125121760000e-4
7.527634904350000e-4 7.622320895210000e-4 7.718197889220000e-4 7.815280867349999e-4
7.913584999020000e-4 8.013125644440001e-4 8.113918357050000e-4 8.215978885910001e-4
8.319323178179999e-4 8.423967381630002e-4 8.529927847120000e-4 8.637221131190000e-4
8.745863998640001e-4 8.855873425120000e-4 8.967266599849999e-4 9.080060928230001e-4
9.194274034600001e-4 9.309923765000001e-4 9.427028189920000e-4 9.545605607180001e-4
9.665674544740000e-4 9.787253763610002e-4 9.910362260790000e-4 1.003501927220000e-3
1.016124427590000e-3 1.028905699460000e-3 1.041847739940000e-3 1.054952571250000e-3
1.068222241040000e-3 1.081658822740000e-3 1.095264415820000e-3 1.109041146200000e-3
1.122991166510000e-3 1.137116656480000e-3 1.151419823240000e-3 1.165902901690000e-3
1.180568154840000e-3 1.195417874170000e-3 1.210454379970000e-3 1.225680021730000e-3
1.241097178490000e-3 1.256708259200000e-3 1.272515703140000e-3 1.288521980250000e-3
1.304729591540000e-3 1.321141069480000e-3 1.337758978400000e-3 1.354585914880000e-3
1.371624508170000e-3 1.388877420580000e-3 1.406347347910000e-3 1.424037019870000e-3
1.441949200520000e-3 1.460086688660000e-3 1.478452318320000e-3 1.497048959160000e-3
1.515879516950000e-3 1.534946933990000e-3 1.554254189620000e-3 1.573804300630000e-3
1.593600321760000e-3 1.613645346180000e-3 1.633942505970000e-3 1.654494972600000e-3
1.675305957440000e-3 1.696378712240000e-3 1.717716529670000e-3 1.739322743800000e-3
1.761200730640000e-3 1.783353908690000e-3 1.805785739410000e-3 1.828499727820000e-3
1.851499423040000e-3 1.874788418810000e-3 1.898370354090000e-3 1.922248913590000e-3
1.946427828400000e-3 1.970910876520000e-3 1.995701883470000e-3 2.020804722900000e-3
2.046223317180000e-3 2.071961638010000e-3 2.098023707070000e-3 2.124413596600000e-3
2.151135430080000e-3 2.178193382840000e-3 2.205591682760000e-3 2.233334610860000e-3
2.261426502030000e-3 2.289871745700000e-3 2.318674786490000e-3 2.347840124930000e-3
2.377372318170000e-3 2.407275980660000e-3 2.437555784930000e-3 2.468216462250000e-3
2.499262803410000e-3 2.530699659470000e-3 2.562531942500001e-3 2.594764626360000e-3
2.627402747480000e-3 2.660451405610000e-3 2.693915764690000e-3 2.727801053599999e-3
2.762112566960000e-3 2.796855666030000e-3 2.832035779490000e-3 2.867658404310000e-3
2.903729106580000e-3 2.940253522440000e-3 2.977237358890000e-3 3.014686394730000e-3
3.052606481460000e-3 3.091003544160000e-3 3.129883582450000e-3 3.169252671420000e-3
3.209116962560000e-3 3.249482684770000e-3 3.290356145250000e-3 3.331743730570000e-3
3.373651907630000e-3 3.416087224670000e-3 3.459056312280000e-3 3.502565884480000e-3
3.546622739730000e-3 3.591233761989999e-3 3.636405921840000e-3 3.682146277510000e-3
3.728461976030000e-3 3.775360254310000e-3 3.822848440320000e-3 3.870933954180000e-3
3.919624309330000e-3 3.968927113770000e-3 4.018850071140000e-3 4.069400982010000e-3
4.120587745060000e-3 4.172418358330000e-3 4.224900920450001e-3 4.278043631950000e-3
4.331854796460000e-3 4.386342822100000e-3 4.441516222730000e-3 4.497383619300000e-3
4.553953741220001e-3 4.611235427670000e-3 4.669237629040000e-3 4.727969408290001e-3
4.787439942370000e-3 4.847658523689999e-3 4.908634561520000e-3 4.970377583480000e-3
5.032897237050000e-3 5.096203291060000e-3 5.160305637200000e-3 5.225214291590000e-3
5.290939396340000e-3 5.357491221150000e-3 5.424880164850000e-3 5.493116757119999e-3
5.562211660049999e-3 5.632175669880001e-3 5.703019718610001e-3 5.774754875779999e-3
5.847392350140001e-3 5.920943491460000e-3 5.995419792240000e-3 6.070832889560000e-3
6.147194566870001e-3 6.224516755840001e-3 6.302811538220000e-3 6.382091147719999e-3
6.462367971950000e-3 6.543654554330001e-3 6.625963596039998e-3 6.709307958040000e-3
6.793700663059999e-3 6.879154897630000e-3 6.965684014150000e-3 7.053301532970001e-3
7.142021144510000e-3 7.231856711380001e-3 7.322822270570001e-3 7.414932035640000e-3
7.508200398930000e-3 7.602641933800001e-3 7.698271396950000e-3 7.795103730660000e-3
7.893154065190000e-3 7.992437721100001e-3 8.092970211670000e-3 8.194767245300000e-3
8.297844727979999e-3 8.402218765779999e-3 8.507905667359999e-3 8.614921946510000e-3
8.723284324740000e-3 8.833009733890000e-3 8.944115318790001e-3 9.056618439900001e-3
9.170536676070000e-3 9.285887827250001e-3 9.402689917300000e-3 9.520961196769999e-3
9.640720145810000e-3 9.761985476980000e-3 9.884776138240001e-3 1.000911131590000e-2
1.013501043750000e-2 1.026249317520000e-2 1.039157944830000e-2 1.052228942680000e-2
1.065464353450000e-2 1.078866245180000e-2 1.092436711970000e-2 1.106177874210000e-2
1.120091879000000e-2 1.134180900420000e-2 1.148447139910000e-2 1.162892826610000e-2
1.177520217670000e-2 1.192331598670000e-2 1.207329283900000e-2 1.222515616800000e-2
1.237892970240000e-2 1.253463746980000e-2 1.269230379980000e-2 1.285195332810000e-2
1.301361100020000e-2 1.317730207550000e-2 1.334305213110000e-2 1.351088706580000e-2
1.368083310400000e-2 1.385291680020000e-2 1.402716504290000e-2 1.420360505860000e-2
1.438226441660000e-2 1.456317103260000e-2 1.474635317370000e-2 1.493183946250000e-2
1.511965888160000e-2 1.530984077810000e-2 1.550241486840000e-2 1.569741124260000e-2
1.589486036930000e-2 1.609479310020000e-2 1.629724067520000e-2 1.650223472730000e-2
1.670980728710000e-2 1.691999078830000e-2 1.713281807250000e-2 1.734832239440000e-2
1.756653742700000e-2 1.778749726670000e-2 1.801123643910000e-2 1.823778990390000e-2
1.846719306040000e-2 1.869948175340000e-2 1.893469227850000e-2 1.917286138770000e-2
1.941402629560000e-2 1.965822468460000e-2 1.990549471110000e-2 2.015587501170000e-2
2.040940470880000e-2 2.066612341690000e-2 2.092607124890000e-2 2.118928882200000e-2
2.145581726460000e-2 2.172569822240000e-2 2.199897386460000e-2 2.227568689130000e-2
2.255588053940000e-2 2.283959858980000e-2 2.312688537380000e-2 2.341778578080000e-2
2.371234526440000e-2 2.401060985020000e-2 2.431262614270000e-2 2.461844133250000e-2
2.492810320380000e-2 2.524166014190000e-2 2.555916114080000e-2 2.588065581070000e-2
2.620619438560000e-2 2.653582773170000e-2 2.686960735500000e-2 2.720758540900000e-2
2.754981470360000e-2 2.789634871280000e-2 2.824724158320000e-2 2.860254814270000e-2
2.896232390840000e-2 2.932662509620000e-2 2.969550862880000e-2 3.006903214510000e-2
3.044725400880000e-2 3.083023331790000e-2 3.121802991370000e-2 3.161070439010000e-2
3.200831810350000e-2 3.241093318160000e-2 3.281861253400000e-2 3.323141986140000e-2
3.364941966580000e-2 3.407267726040000e-2 3.450125878020000e-2 3.493523119180000e-2
3.537466230450001e-2 3.581962078000000e-2 3.627017614420000e-2 3.672639879720000e-2
3.718836002470000e-2 3.765613200919999e-2 3.812978784090000e-2 3.860940152950000e-2
3.909504801560000e-2 3.958680318260000e-2 4.008474386810001e-2 4.058894787630000e-2
4.109949399030000e-2 4.161646198380000e-2 4.213993263410000e-2 4.266998773470000e-2
4.320671010760000e-2 4.375018361700000e-2 4.430049318150000e-2 4.485772478820000e-2
4.542196550570000e-2 4.599330349770000e-2 4.657182803690000e-2 4.715762951900000e-2
4.775079947670000e-2 4.835143059390000e-2 4.895961672060000e-2 4.957545288700000e-2
5.019903531870000e-2 5.083046145180000e-2 5.146982994800000e-2 5.211724070979999e-2
5.277279489650000e-2 5.343659493980000e-2 5.410874455970001e-2 5.478934878110000e-2
5.547851394970000e-2 5.617634774890000e-2 5.688295921680000e-2 5.759845876280000e-2
5.832295818520000e-2 5.905657068840000e-2 5.979941090100001e-2 6.055159489320000e-2
6.131324019520000e-2 6.208446581580001e-2 6.286539226050001e-2 6.365614155069999e-2
6.445683724240001e-2 6.526760444610000e-2 6.608856984580001e-2 6.691986171900000e-2
6.776160995680001e-2 6.861394608389999e-2 6.947700327980000e-2 7.035091639870000e-2
7.123582199150000e-2 7.213185832629999e-2 7.303916541080000e-2 7.395788501349999e-2
7.488816068619998e-2 7.583013778640001e-2 7.678396349980000e-2 7.774978686380001e-2
7.872775879020000e-2 7.971803208899999e-2 8.072076149260001e-2 8.173610367929999e-2
8.276421729860001e-2 8.380526299520000e-2 8.485940343459999e-2 8.592680332850000e-2
8.700762946020001e-2 8.810205071099999e-2 8.921023808649998e-2 9.033236474320001e-2
9.146860601570001e-2 9.261913944390001e-2 9.378414480120000e-2 9.496380412180001e-2
9.615830173010000e-2 9.736782426860000e-2 9.859256072779999e-2 9.983270247520000e-2
1.010884432850000e-1 1.023599793710000e-1 1.036475094110000e-1 1.049512345850000e-1
1.062713586040000e-1 1.076080877380000e-1 1.089616308550000e-1 1.103321994480000e-1
1.117200076730000e-1 1.131252723750000e-1 1.145482131320000e-1 1.159890522800000e-1
1.174480149530000e-1 1.189253291180000e-1 1.204212256070000e-1 1.219359381580000e-1
1.234697034470000e-1 1.250227611280000e-1 1.265953538710000e-1 1.281877273950000e-1
1.298001305120000e-1 1.314328151640000e-1 1.330860364600000e-1 1.347600527200000e-1
1.364551255130000e-1 1.381715196970000e-1 1.399095034620000e-1 1.416693483710000e-1
1.434513294040000e-1 1.452557250000000e-1 1.470828170970000e-1 1.489328911850000e-1
1.508062363390000e-1 1.527031452750000e-1 1.546239143880000e-1 1.565688438020000e-1
1.585382374170000e-1 1.605324029530000e-1 1.625516520050000e-1 1.645963000820000e-1
1.666666666670000e-1 1.687630752570000e-1 1.708858534210000e-1 1.730353328470000e-1
1.752118493960000e-1 1.774157431530000e-1 1.796473584810000e-1 1.819070440740000e-1
1.841951530130000e-1 1.865120428190000e-1 1.888580755110000e-1 1.912336176620000e-1
1.936390404550000e-1 1.960747197410000e-1 1.985410361020000e-1 2.010383749030000e-1
2.035671263600000e-1 2.061276855940000e-1 2.087204526990000e-1 2.113458327980000e-1
2.140042361150000e-1 2.166960780280000e-1 2.194217791450000e-1 2.221817653610000e-1
2.249764679290000e-1 2.278063235290000e-1 2.306717743300000e-1 2.335732680650000e-1
2.365112580990000e-1 2.394862034980000e-1 2.424985691030000e-1 2.455488256030000e-1
2.486374496070000e-1 2.517649237180000e-1 2.549317366110000e-1 2.581383831060000e-1
2.613853642480000e-1 2.646731873860000e-1 2.680023662480000e-1 2.713734210240000e-1
2.747868784500000e-1 2.782432718850000e-1 2.817431413970000e-1 2.852870338470000e-1
2.888755029780000e-1 2.925091094930000e-1 2.961884211520000e-1 2.999140128550000e-1
3.036864667320000e-1 3.075063722370000e-1 3.113743262390000e-1 3.152909331120000e-1
3.192568048360000e-1 3.232725610840000e-1 3.273388293280000e-1 3.314562449300000e-1
3.356254512450000e-1 3.398470997190000e-1 3.441218499940000e-1 3.484503700090000e-1
3.528333361020000e-1 3.572714331220000e-1 3.617653545310000e-1 3.663158025120000e-1
3.709234880820000e-1 3.755891312020000e-1 3.803134608880000e-1 3.850972153260000e-1
3.899411419880000e-1 3.948459977460000e-1 3.998125489950000e-1 4.048415717670000e-1
4.099338518590000e-1 4.150901849500000e-1 4.203113767260000e-1 4.255982430100000e-1
4.309516098860000e-1 4.363723138270000e-1 4.418612018300000e-1 4.474191315450000e-1
4.530469714100000e-1 4.587456007850000e-1 4.645159100940000e-1 4.703588009590000e-1
4.762751863440000e-1 4.822659906949999e-1 4.883321500890000e-1 4.944746123750000e-1
5.006943373240000e-1 5.069922967829999e-1 5.133694748200000e-1 5.198268678810000e-1
5.263654849480000e-1 5.329863476930000e-1 5.396904906400000e-1 5.464789613230000e-1
5.533528204560000e-1 5.603131420930000e-1 5.673610137980000e-1 5.744975368170000e-1
5.817238262440000e-1 5.890410112020001e-1 5.964502350170000e-1 6.039526553940000e-1
6.115494446030000e-1 6.192417896570000e-1 6.270308925000000e-1 6.349179701960001e-1
6.429042551160000e-1 6.509909951340001e-1 6.591794538200000e-1 6.674709106370001e-1
6.758666611410000e-1 6.843680171860001e-1 6.929763071260000e-1 7.016928760240000e-1
7.105190858609999e-1 7.194563157519999e-1 7.285059621549999e-1 7.376694390970000e-1
7.469481783900001e-1 7.563436298550000e-1 7.658572615510000e-1 7.754905600030000e-1
7.852450304320000e-1 7.951221969950000e-1 8.051236030180000e-1 8.152508112430001e-1
8.255054040660001e-1 8.358889837870001e-1 8.464031728630001e-1 8.570496141570001e-1
8.678299711970000e-1 8.787459284350000e-1 8.897991915120000e-1 9.009914875240000e-1
9.123245652880000e-1 9.238001956220000e-1 9.354201716160000e-1 9.471863089140001e-1
9.591004460010000e-1 9.711644444839999e-1 9.833801893870000e-1 9.957495894450000e-1
1.008274577400000e0 1.020957110310000e0 1.033799169850000e0 1.046802762610000e0
1.059969920430000e0 1.073302700710000e0 1.086803186720000e0 1.100473487940000e0
1.114315740380000e0 1.128332106920000e0 1.142524777650000e0 1.156895970200000e0
1.171447930100000e0 1.186182931120000e0 1.201103275640000e0 1.216211294980000e0
1.231509349820000e0 1.246999830500000e0 1.262685157440000e0 1.278567781500000e0
1.294650184380000e0 1.310934878990000e0 1.327424409840000e0 1.344121353450000e0
1.361028318760000e0 1.378147947510000e0 1.395482914690000e0 1.413035928910000e0
1.430809732860000e0 1.448807103750000e0 1.467030853700000e0 1.485483830200000e0
1.504168916570000e0 1.523089032400000e0 1.542247133980000e0 1.561646214820000e0
1.581289306060000e0 1.601179476970000e0 1.621319835430000e0 1.641713528410000e0
1.662363742470000e0 1.683273704250000e0 1.704446680970000e0 1.725885980950000e0
1.747594954120000e0 1.769576992560000e0 1.791835531010000e0 1.814374047410000e0
1.837196063440000e0 1.860305145090000e0 1.883704903210000e0 1.907398994060000e0
1.931391119870000e0 1.955685029480000e0 1.980284518850000e0 2.005193431710000e0
2.030415660120000e0 2.055955145110000e0 2.081815877270000e0 2.108001897400000e0
2.134517297110000e0 2.161366219490000e0 2.188552859750000e0 2.216081465840000e0
2.243956339170000e0 2.272181835240000e0 2.300762364340000e0 2.329702392250000e0
2.359006440900000e0 2.388679089100000e0 2.418724973270000e0 2.449148788130000e0
2.479955287480000e0 2.511149284890000e0 2.542735654480000e0 2.574719331690000e0
2.607105314030000e0 2.639898661890000e0 2.673104499280000e0 2.706728014680000e0
2.740774461850000e0 2.775249160600000e0 2.810157497680000e0 2.845504927590000e0
2.881296973430000e0 2.917539227780000e0 2.954237353580000e0 2.991397084970000e0
3.029024228240000e0 3.067124662710000e0 3.105704341650000e0 3.144769293210000e0
3.184325621370000e0 3.224379506890000e0 3.264937208270000e0 3.306005062720000e0
3.347589487200000e0 3.389696979340000e0 3.432334118530000e0 3.475507566910000e0
3.519224070420000e0 3.563490459850000e0 3.608313651920000e0 3.653700650330000e0
3.699658546910000e0 3.746194522660000e0 3.793315848920000e0 3.841029888510000e0
3.889344096820000e0 3.938266023070000e0 3.987803311400000e0 4.037963702100000e0
4.088755032850000e0 4.140185239890000e0 4.192262359300000e0 4.244994528240000e0
4.298389986200000e0 4.352457076340000e0 4.407204246760000e0 4.462640051810000e0
4.518773153440000e0 4.575612322580000e0 4.633166440440000e0 4.691444500000000e0
4.750455607290000e0 4.810208982950000e0 4.870713963540000e0 4.931980003100000e0
4.994016674570000e0 5.056833671300000e0 5.120440808580000e0 5.184848025160000e0
5.250065384790000e0 5.316103077820000e0 5.382971422770000e0 5.450680867950000e0
5.519241993120000e0 5.588665511070000e0 5.658962269370000e0 5.730143252050000e0
5.802219581270000e0 5.875202519100000e0 5.949103469280000e0 6.023933978970000e0
6.099705740610000e0 6.176430593680000e0 6.254120526600000e0 6.332787678570000e0
6.412444341510000e0 6.493102961910000e0 6.574776142870000e0 6.657476645970000e0
6.741217393340000e0 6.826011469650000e0 6.911872124140000e0 6.998812772710000e0
7.086847000010000e0 7.175988561580000e0 7.266251385950000e0 7.357649576890000e0
7.450197415550000e0 7.543909362710000e0 7.638800061060000e0 7.734884337450000e0
7.832177205260000e0 7.930693866700000e0 8.030449715180000e0 8.131460337780000e0
8.233741517590000e0 8.337309236270000e0 8.442179676469999e0 8.548369224429999e0
8.655894472470001e0 8.764772221630000e0 8.875019484290000e0 8.986653486790001e0
9.099691672190000e0 9.214151702920001e0 9.330051463609999e0 9.447409063809999e0
9.566242840910000e0 9.686571362910000e0 9.808413431390001e0 9.931788084430000e0
1.005671459960000e1 1.018321249680000e1 1.031130154170000e1 1.044100174850000e1
1.057233338300000e1 1.070531696620000e1 1.083997327680000e1 1.097632335540000e1
1.111438850680000e1 1.125419030410000e1 1.139575059140000e1 1.153909148800000e1
1.168423539110000e1 1.183120497980000e1 1.198002321830000e1 1.213071335980000e1
1.228329894990000e1 1.243780383050000e1 1.259425214330000e1 1.275266833360000e1
1.291307715420000e1 1.307550366940000e1 1.323997325870000e1 1.340651162070000e1
1.357514477750000e1 1.374589907820000e1 1.391880120370000e1 1.409387817010000e1
1.427115733370000e1 1.445066639470000e1 1.463243340160000e1 1.481648675610000e1
1.500285521680000e1 1.519156790410000e1 1.538265430480000e1 1.557614427650000e1
1.577206805250000e1 1.597045624620000e1 1.617133985620000e1 1.637475027090000e1
1.658071927370000e1 1.678927904750000e1 1.700046218040000e1 1.721430167020000e1
1.743083092950000e1 1.765008379170000e1 1.787209451530000e1 1.809689779010000e1
1.832452874200000e1 1.855502293880000e1 1.878841639570000e1 1.902474558080000e1
1.926404742120000e1 1.950635930820000e1 1.975171910350000e1 2.000016514500000e1
2.025173625310000e1 2.050647173620000e1 2.076441139720000e1 2.102559553970000e1
2.129006497430000e1 2.155786102490000e1 2.182902553510000e1 2.210360087500000e1
2.238162994750000e1 2.266315619520000e1 2.294822360710000e1 2.323687672570000e1
2.352916065360000e1 2.382512106070000e1 2.412480419140000e1 2.442825687180000e1
2.473552651710000e1 2.504666113870000e1 2.536170935210000e1 2.568072038420000e1
2.600374408110000e1 2.633083091590000e1 2.666203199660000e1 2.699739907400000e1
2.733698455000000e1 2.768084148540000e1 2.802902360860000e1 2.838158532380000e1
2.873858171950000e1 2.910006857700000e1 2.946610237940000e1 2.983674032030000e1
3.021204031250000e1 3.059206099750000e1 3.097686175430000e1 3.136650270880000e1
3.176104474310000e1 3.216054950530000e1 3.256507941880001e1 3.297469769210000e1
3.338946832910000e1 3.380945613850001e1 3.423472674410000e1 3.466534659550000e1
3.510138297780000e1 3.554290402260000e1 3.598997871840000e1 3.644267692170000e1
3.690106936740000e1 3.736522768020000e1 3.783522438590000e1 3.831113292230000e1
3.879302765130000e1 3.928098386970000e1 3.977507782180000e1 4.027538671070000e1
4.078198871070000e1 4.129496297940000e1 4.181438967010000e1 4.234034994430000e1
4.287292598430000e1 4.341220100620000e1 4.395825927280000e1 4.451118610690000e1
4.507106790440001e1 4.563799214790000e1 4.621204742050000e1 4.679332341960000e1
4.738191097070000e1 4.797790204170000e1 4.858138975760000e1 4.919246841440000e1
4.981123349450001e1 5.043778168120000e1 5.107221087390000e1 5.171462020340001e1
5.236511004760001e1 5.302378204680000e1 5.369073911970000e1 5.436608547990001e1
5.504992665160001e1 5.574236948630000e1 5.644352217970000e1 5.715349428820001e1
5.787239674650000e1 5.860034188450000e1 5.933744344510000e1 6.008381660200000e1
6.083957797760000e1 6.160484566090000e1 6.237973922670001e1 6.316437975370000e1
6.395888984350001e1 6.476339364000001e1 6.557801684850000e1 6.640288675560000e1
6.723813224880001e1 6.808388383700001e1 6.894027367050001e1 6.980743556210000e1
7.068550500750000e1 7.157461920679999e1 7.247491708610001e1 7.338653931850001e1
7.430962834710001e1 7.524432840630000e1 7.619078554480000e1 7.714914764860001e1
7.811956446370001e1 7.910218761970000e1 8.009717065350001e1 8.110466903310000e1
8.212484018220001e1 8.315784350470000e1 8.420384040950001e1 8.526299433560000e1
8.633547077810000e1 8.742143731350000e1 8.852106362630002e1 8.963452153550000e1
9.076198502100000e1 9.190363025130001e1 9.305963561080000e1 9.423018172780001e1
9.541545150230000e1 9.661563013520002e1 9.783090515700001e1 9.906146645660002e1
1.003075063120000e2
</PP_R>
<PP_RAB>
1.899754094910000e-6 1.923650059730000e-6 1.947846598780000e-6 1.972347492840000e-6
1.997156570200000e-6 2.022277707330000e-6 2.047714829479999e-6 2.073471911230000e-6
2.099552977180000e-6 2.125962102560000e-6 2.152703413850000e-6 2.179781089420000e-6
2.207199360220000e-6 2.234962510419999e-6 2.263074878050000e-6 2.291540855740000e-6
2.320364891340000e-6 2.349551488690000e-6 2.379105208230000e-6 2.409030667800000e-6
2.439332543310000e-6 2.470015569500000e-6 2.501084540650000e-6 2.532544311340001e-6
2.564399797240000e-6 2.596655975820000e-6 2.629317887180000e-6 2.662390634810000e-6
2.695879386390000e-6 2.729789374610000e-6 2.764125897970000e-6 2.798894321630000e-6
2.834100078220000e-6 2.869748668720001e-6 2.905845663280000e-6 2.942396702140000e-6
2.979407496469999e-6 3.016883829290000e-6 3.054831556340000e-6 3.093256607040000e-6
3.132164985370000e-6 3.171562770860000e-6 3.211456119479999e-6 3.251851264650000e-6
3.292754518200000e-6 3.334172271339999e-6 3.376110995690000e-6 3.418577244240000e-6
3.461577652450000e-6 3.505118939200000e-6 3.549207907920000e-6 3.593851447600000e-6
3.639056533880000e-6 3.684830230140000e-6 3.731179688630000e-6 3.778112151530000e-6
3.825634952140001e-6 3.873755516000000e-6 3.922481362040001e-6 3.971820103770000e-6
4.021779450469999e-6 4.072367208399999e-6 4.123591281990000e-6 4.175459675100001e-6
4.227980492280000e-6 4.281161940020000e-6 4.335012328019999e-6 4.389540070520001e-6
4.444753687580000e-6 4.500661806450001e-6 4.557273162880000e-6 4.614596602520001e-6
4.672641082259999e-6 4.731415671679999e-6 4.790929554430001e-6 4.851192029660000e-6
4.912212513520000e-6 4.974000540580001e-6 5.036565765340000e-6 5.099917963750000e-6
5.164067034720000e-6 5.229023001670000e-6 5.294796014099999e-6 5.361396349179999e-6
5.428834413350000e-6 5.497120743939999e-6 5.566266010830000e-6 5.636281018110000e-6
5.707176705770001e-6 5.778964151390000e-6 5.851654571929999e-6 5.925259325390000e-6
5.999789912680001e-6 6.075257979350001e-6 6.151675317440000e-6 6.229053867320000e-6
6.307405719530000e-6 6.386743116720002e-6 6.467078455519999e-6 6.548424288480000e-6
6.630793326060001e-6 6.714198438590000e-6 6.798652658280001e-6 6.884169181290000e-6
6.970761369730001e-6 7.058442753820000e-6 7.147227033949999e-6 7.237128082849999e-6
7.328159947730001e-6 7.420336852520000e-6 7.513673200030001e-6 7.608183574270000e-6
7.703882742669999e-6 7.800785658429998e-6 7.898907462810001e-6 7.998263487549999e-6
8.098869257240001e-6 8.200740491730002e-6 8.303893108599997e-6 8.408343225670002e-6
8.514107163469998e-6 8.621201447829998e-6 8.729642812470001e-6 8.839448201549999e-6
8.950634772400001e-6 9.063219898139998e-6 9.177221170430000e-6 9.292656402200000e-6
9.409543630440000e-6 9.527901119019999e-6 9.647747361530000e-6 9.769101084190002e-6
9.891981248769998e-6 1.001640705560000e-5 1.014239794630000e-5 1.026997360740000e-5
1.039915397270000e-5 1.052995922700000e-5 1.066240980890000e-5 1.079652641400000e-5
1.093232999830000e-5 1.106984178140000e-5 1.120908324980000e-5 1.135007616030000e-5
1.149284254330000e-5 1.163740470620000e-5 1.178378523740000e-5 1.193200700900000e-5
1.208209318090000e-5 1.223406720450000e-5 1.238795282600000e-5 1.254377409030000e-5
1.270155534480000e-5 1.286132124320000e-5 1.302309674920000e-5 1.318690714060000e-5
1.335277801300000e-5 1.352073528420000e-5 1.369080519780000e-5 1.386301432750000e-5
1.403738958140000e-5 1.421395820600000e-5 1.439274779050000e-5 1.457378627120000e-5
1.475710193550000e-5 1.494272342710000e-5 1.513067974960000e-5 1.532100027160000e-5
1.551371473110000e-5 1.570885324010000e-5 1.590644628930000e-5 1.610652475310000e-5
1.630911989420000e-5 1.651426336850000e-5 1.672198723000000e-5 1.693232393600000e-5
1.714530635210000e-5 1.736096775720000e-5 1.757934184890000e-5 1.780046274840000e-5
1.802436500650000e-5 1.825108360830000e-5 1.848065397900000e-5 1.871311198950000e-5
1.894849396190000e-5 1.918683667490000e-5 1.942817737030000e-5 1.967255375780000e-5
1.992000402200000e-5 2.017056682720000e-5 2.042428132460000e-5 2.068118715750000e-5
2.094132446800000e-5 2.120473390300000e-5 2.147145662080000e-5 2.174153429740000e-5
2.201500913300000e-5 2.229192385860000e-5 2.257232174260000e-5 2.285624659780000e-5
2.314374278800000e-5 2.343485523510000e-5 2.372962942610000e-5 2.402811141990000e-5
2.433034785499999e-5 2.463638595650000e-5 2.494627354329999e-5 2.526005903620000e-5
2.557779146470001e-5 2.589952047520000e-5 2.622529633839999e-5 2.655516995750000e-5
2.688919287600000e-5 2.722741728560000e-5 2.756989603450000e-5 2.791668263570000e-5
2.826783127540000e-5 2.862339682130000e-5 2.898343483110000e-5 2.934800156160000e-5
2.971715397710000e-5 3.009094975830000e-5 3.046944731169999e-5 3.085270577810000e-5
3.124078504270000e-5 3.163374574340001e-5 3.203164928130000e-5 3.243455782950000e-5
3.284253434340000e-5 3.325564257020000e-5 3.367394705870000e-5 3.409751316990000e-5
3.452640708700001e-5 3.496069582540001e-5 3.540044724370000e-5 3.584573005390000e-5
3.629661383229999e-5 3.675316903049999e-5 3.721546698610000e-5 3.768357993410000e-5
3.815758101820000e-5 3.863754430190000e-5 3.912354478059999e-5 3.961565839270000e-5
4.011396203209999e-5 4.061853355960000e-5 4.112945181560001e-5 4.164679663220000e-5
4.217064884540000e-5 4.270109030840000e-5 4.323820390350001e-5 4.378207355600000e-5
4.433278424660000e-5 4.489042202490000e-5 4.545507402300000e-5 4.602682846890000e-5
4.660577470030000e-5 4.719200317889999e-5 4.778560550400001e-5 4.838667442720000e-5
4.899530386670000e-5 4.961158892209999e-5 5.023562588920000e-5 5.086751227510000e-5
5.150734681319999e-5 5.215522947909999e-5 5.281126150570000e-5 5.347554539930001e-5
5.414818495570000e-5 5.482928527620000e-5 5.551895278410001e-5 5.621729524130002e-5
5.692442176520000e-5 5.764044284580000e-5 5.836547036300001e-5 5.909961760360000e-5
5.984299927970000e-5 6.059573154620001e-5 6.135793201899999e-5 6.212971979350001e-5
6.291121546319999e-5 6.370254113820000e-5 6.450382046500001e-5 6.531517864490000e-5
6.613674245430001e-5 6.696864026430001e-5 6.781100206059999e-5 6.866395946400000e-5
6.952764575070001e-5 7.040219587350000e-5 7.128774648260000e-5 7.218443594719998e-5
7.309240437680000e-5 7.401179364320000e-5 7.494274740300000e-5 7.588541111950001e-5
7.683993208590000e-5 7.780645944800000e-5 7.878514422780000e-5 7.977613934659999e-5
8.077959964940000e-5 8.179568192910001e-5 8.282454495049997e-5 8.386634947550000e-5
8.492125828830000e-5 8.598943622040000e-5 8.707105017690001e-5 8.816626916219999e-5
8.927526430630001e-5 9.039820889220000e-5 9.153527838209998e-5 9.268665044550001e-5
9.385250498660000e-5 9.503302417250001e-5 9.622839246180000e-5 9.743879663320000e-5
9.866442581490000e-5 9.990547151379999e-5 1.011621276460000e-4 1.024345905660000e-4
1.037230591000000e-4 1.050277345720000e-4 1.063488208420000e-4 1.076865243310000e-4
1.090410540590000e-4 1.104126216740000e-4 1.118014414850000e-4 1.132077304990000e-4
1.146317084510000e-4 1.160735978410000e-4 1.175336239660000e-4 1.190120149600000e-4
1.205090018230000e-4 1.220248184620000e-4 1.235597017280000e-4 1.251138914490000e-4
1.266876304690000e-4 1.282811646900000e-4 1.298947431030000e-4 1.315286178350000e-4
1.331830441810000e-4 1.348582806480000e-4 1.365545889960000e-4 1.382722342760000e-4
1.400114848740000e-4 1.417726125520000e-4 1.435558924890000e-4 1.453616033260000e-4
1.471900272090000e-4 1.490414498340000e-4 1.509161604880000e-4 1.528144520990000e-4
1.547366212800000e-4 1.566829683720000e-4 1.586537974970000e-4 1.606494166010000e-4
1.626701375020000e-4 1.647162759440000e-4 1.667881516390000e-4 1.688860883220000e-4
1.710104138000000e-4 1.731614600030000e-4 1.753395630360000e-4 1.775450632330000e-4
1.797783052070000e-4 1.820396379070000e-4 1.843294146710000e-4 1.866479932810000e-4
1.889957360200000e-4 1.913730097270000e-4 1.937801858560000e-4 1.962176405330000e-4
1.986857546160000e-4 2.011849137520000e-4 2.037155084400000e-4 2.062779340910000e-4
2.088725910890000e-4 2.114998848540000e-4 2.141602259070000e-4 2.168540299300000e-4
2.195817178370000e-4 2.223437158340000e-4 2.251404554890000e-4 2.279723737980000e-4
2.308399132550000e-4 2.337435219170000e-4 2.366836534810000e-4 2.396607673470000e-4
2.426753286950000e-4 2.457278085570000e-4 2.488186838890000e-4 2.519484376470000e-4
2.551175588600000e-4 2.583265427120000e-4 2.615758906110000e-4 2.648661102750000e-4
2.681977158080000e-4 2.715712277800000e-4 2.749871733080000e-4 2.784460861420000e-4
2.819485067430000e-4 2.854949823720000e-4 2.890860671730000e-4 2.927223222600000e-4
2.964043158050000e-4 3.001326231280000e-4 3.039078267840000e-4 3.077305166560000e-4
3.116012900470000e-4 3.155207517740000e-4 3.194895142600001e-4 3.235081976330000e-4
3.275774298200000e-4 3.316978466470000e-4 3.358700919370000e-4 3.400948176120000e-4
3.443726837950001e-4 3.487043589100000e-4 3.530905197910000e-4 3.575318517830000e-4
3.620290488550000e-4 3.665828137020000e-4 3.711938578600000e-4 3.758629018130000e-4
3.805906751100000e-4 3.853779164740001e-4 3.902253739210000e-4 3.951338048770000e-4
4.001039762930001e-4 4.051366647700000e-4 4.102326566750000e-4 4.153927482680000e-4
4.206177458220001e-4 4.259084657550000e-4 4.312657347520000e-4 4.366903898980000e-4
4.421832788060000e-4 4.477452597500000e-4 4.533772018030000e-4 4.590799849650001e-4
4.648545003090000e-4 4.707016501149999e-4 4.766223480110000e-4 4.826175191190000e-4
4.886881001950000e-4 4.948350397820000e-4 5.010592983510000e-4 5.073618484540000e-4
5.137436748780000e-4 5.202057747970001e-4 5.267491579270000e-4 5.333748466840000e-4
5.400838763460001e-4 5.468772952120000e-4 5.537561647690000e-4 5.607215598520000e-4
5.677745688210000e-4 5.749162937209999e-4 5.821478504610001e-4 5.894703689880000e-4
5.968849934589999e-4 6.043928824239999e-4 6.119952090070000e-4 6.196931610870000e-4
6.274879414840000e-4 6.353807681480000e-4 6.433728743500000e-4 6.514655088730001e-4
6.596599362060001e-4 6.679574367469999e-4 6.763593069970000e-4 6.848668597640001e-4
6.934814243709999e-4 7.022043468619998e-4 7.110369902100000e-4 7.199807345350000e-4
7.290369773150001e-4 7.382071336049999e-4 7.474926362619999e-4 7.568949361650001e-4
7.664155024410001e-4 7.760558226979999e-4 7.858174032569999e-4 7.957017693830002e-4
8.057104655300002e-4 8.158450555770001e-4 8.261071230730000e-4 8.364982714880000e-4
8.470201244600000e-4 8.576743260490000e-4 8.684625409970002e-4 8.793864549840000e-4
8.904477748929997e-4 9.016482290790002e-4 9.129895676349999e-4 9.244735626690002e-4
9.361020085780002e-4 9.478767223300000e-4 9.597995437480000e-4 9.718723357980000e-4
9.840969848769998e-4 9.964754011129999e-4 1.009009518660000e-3 1.021701295990000e-3
1.034552716230000e-3 1.047565787440000e-3 1.060742542930000e-3 1.074085041610000e-3
1.087595368250000e-3 1.101275633890000e-3 1.115127976080000e-3 1.129154559290000e-3
1.143357575200000e-3 1.157739243050000e-3 1.172301810010000e-3 1.187047551520000e-3
1.201978771630000e-3 1.217097803360000e-3 1.232407009100000e-3 1.247908780940000e-3
1.263605541070000e-3 1.279499742130000e-3 1.295593867640000e-3 1.311890432320000e-3
1.328391982550000e-3 1.345101096720000e-3 1.362020385690000e-3 1.379152493110000e-3
1.396500095910000e-3 1.414065904690000e-3 1.431852664150000e-3 1.449863153500000e-3
1.468100186910000e-3 1.486566613970000e-3 1.505265320090000e-3 1.524199226970000e-3
1.543371293090000e-3 1.562784514110000e-3 1.582441923390000e-3 1.602346592430000e-3
1.622501631400000e-3 1.642910189540000e-3 1.663575455750000e-3 1.684500659000000e-3
1.705689068909999e-3 1.727143996210000e-3 1.748868793270000e-3 1.770866854640000e-3
1.793141617550000e-3 1.815696562490000e-3 1.838535213720000e-3 1.861661139810000e-3
1.885077954240000e-3 1.908789315940000e-3 1.932798929850000e-3 1.957110547530000e-3
1.981727967710000e-3 2.006655036920000e-3 2.031895650060000e-3 2.057453751030000e-3
2.083333333330000e-3 2.109538440710000e-3 2.136073167760000e-3 2.162941660590000e-3
2.190148117450000e-3 2.217696789410000e-3 2.245591981010000e-3 2.273838050919999e-3
2.302439412660000e-3 2.331400535230000e-3 2.360725943890000e-3 2.390420220780000e-3
2.420488005680000e-3 2.450933996770000e-3 2.481762951280000e-3 2.512979686290000e-3
2.544589079500001e-3 2.576596069930000e-3 2.609005658730000e-3 2.641822909980000e-3
2.675052951430001e-3 2.708700975350000e-3 2.742772239310000e-3 2.777272067010000e-3
2.812205849120000e-3 2.847579044110000e-3 2.883397179130000e-3 2.919665850820000e-3
2.956390726240000e-3 2.993577543720000e-3 3.031232113790000e-3 3.069360320040000e-3
3.107968120090000e-3 3.147061546470000e-3 3.186646707630000e-3 3.226729788820000e-3
3.267317053100000e-3 3.308414842320000e-3 3.350029578100000e-3 3.392167762800000e-3
3.434835980630000e-3 3.478040898560000e-3 3.521789267460000e-3 3.566087923090000e-3
3.610943787220000e-3 3.656363868670000e-3 3.702355264400000e-3 3.748925160680000e-3
3.796080834150000e-3 3.843829652960000e-3 3.892179077980000e-3 3.941136663900000e-3
3.990710060450000e-3 4.040907013550000e-3 4.091735366600000e-3 4.143203061630000e-3
4.195318140560000e-3 4.248088746490000e-3 4.301523124930000e-3 4.355629625110000e-3
4.410416701280000e-3 4.465892914030000e-3 4.522066931630000e-3 4.578947531400001e-3
4.636543601030000e-3 4.694864140030000e-3 4.753918261100000e-3 4.813715191579999e-3
4.874264274850000e-3 4.935574971820000e-3 4.997656862430000e-3 5.060519647090000e-3
5.124173148240000e-3 5.188627311870000e-3 5.253892209080000e-3 5.319978037629999e-3
5.386895123570000e-3 5.454653922840000e-3 5.523265022880000e-3 5.592739144320000e-3
5.663087142620000e-3 5.734320009819999e-3 5.806448876179999e-3 5.879485011990000e-3
5.953439829300001e-3 6.028324883690001e-3 6.104151876110000e-3 6.180932654680000e-3
6.258679216559999e-3 6.337403709790000e-3 6.417118435250001e-3 6.497835848510000e-3
6.579568561849999e-3 6.662329346169999e-3 6.746131133000000e-3 6.830987016540000e-3
6.916910255700000e-3 7.003914276160001e-3 7.092012672479999e-3 7.181219210210000e-3
7.271547828050000e-3 7.363012640030000e-3 7.455627937710001e-3 7.549408192430000e-3
7.644368057540001e-3 7.740522370710000e-3 7.837886156250001e-3 7.936474627450001e-3
8.036303188950001e-3 8.137387439180001e-3 8.239743172750002e-3 8.343386382960000e-3
8.448333264260000e-3 8.554600214819999e-3 8.662203839080000e-3 8.771160950300001e-3
8.881488573270001e-3 8.993203946900000e-3 9.106324526940000e-3 9.220867988709999e-3
9.336852229869999e-3 9.454295373190000e-3 9.573215769390000e-3 9.693632000030000e-3
9.815562880400000e-3 9.939027462429999e-3 1.006404503770000e-2 1.019063514050000e-2
1.031881755080000e-2 1.044861229730000e-2 1.058003966080000e-2 1.071312017700000e-2
1.084787464000000e-2 1.098432410540000e-2 1.112248989390000e-2 1.126239359400000e-2
1.140405706610000e-2 1.154750244530000e-2 1.169275214520000e-2 1.183982886140000e-2
1.198875557500000e-2 1.213955555600000e-2 1.229225236730000e-2 1.244686986810000e-2
1.260343221750000e-2 1.276196387890000e-2 1.292248962310000e-2 1.308503453260000e-2
1.324962400540000e-2 1.341628375890000e-2 1.358503983400000e-2 1.375591859930000e-2
1.392894675470000e-2 1.410415133650000e-2 1.428155972060000e-2 1.446119962750000e-2
1.464309912620000e-2 1.482728663900000e-2 1.501379094550000e-2 1.520264118730000e-2
1.539386687280000e-2 1.558749788130000e-2 1.578356446800000e-2 1.598209726880000e-2
1.618312730480000e-2 1.638668598740000e-2 1.659280512300000e-2 1.680151691820000e-2
1.701285398450000e-2 1.722684934390000e-2 1.744353643360000e-2 1.766294911130000e-2
1.788512166080000e-2 1.811008879690000e-2 1.833788567120000e-2 1.856854787750000e-2
1.880211145720000e-2 1.903861290500000e-2 1.927808917480000e-2 1.952057768530000e-2
1.976611632570000e-2 2.001474346210000e-2 2.026649794280000e-2 2.052141910510000e-2
2.077954678090000e-2 2.104092130310000e-2 2.130558351210000e-2 2.157357476180000e-2
2.184493692650000e-2 2.211971240710000e-2 2.239794413770000e-2 2.267967559260000e-2
2.296495079300000e-2 2.325381431370000e-2 2.354631129020000e-2 2.384248742570000e-2
2.414238899840000e-2 2.444606286850000e-2 2.475355648560000e-2 2.506491789630000e-2
2.538019575150000e-2 2.569943931380000e-2 2.602269846580000e-2 2.635002371750000e-2
2.668146621390000e-2 2.701707774370000e-2 2.735691074690000e-2 2.770101832300000e-2
2.804945423960000e-2 2.840227294050000e-2 2.875952955430000e-2 2.912127990310000e-2
2.948758051120000e-2 2.985848861370000e-2 3.023406216580000e-2 3.061435985160000e-2
3.099944109350000e-2 3.138936606110000e-2 3.178419568100000e-2 3.218399164610000e-2
3.258881642540000e-2 3.299873327360000e-2 3.341380624090000e-2 3.383410018350000e-2
3.425968077310000e-2 3.469061450750000e-2 3.512696872099999e-2 3.556881159480000e-2
3.601621216780000e-2 3.646924034730000e-2 3.692796691970001e-2 3.739246356210000e-2
3.786280285300000e-2 3.833905828390000e-2 3.882130427060000e-2 3.930961616510000e-2
3.980407026710000e-2 4.030474383610000e-2 4.081171510330000e-2 4.132506328400000e-2
4.184486859000000e-2 4.237121224180001e-2 4.290417648170000e-2 4.344384458640000e-2
4.399030088030001e-2 4.454363074820000e-2 4.510392064900000e-2 4.567125812920000e-2
4.624573183630000e-2 4.682743153320001e-2 4.741644811150000e-2 4.801287360630000e-2
4.861680121030000e-2 4.922832528840000e-2 4.984754139240000e-2 5.047454627630001e-2
5.110943791060000e-2 5.175231549869999e-2 5.240327949129999e-2 5.306243160290000e-2
5.372987482750000e-2 5.440571345430000e-2 5.509005308450000e-2 5.578300064760001e-2
5.648466441800000e-2 5.719515403220000e-2 5.791458050560000e-2 5.864305624990001e-2
5.938069509120001e-2 6.012761228679999e-2 6.088392454419999e-2 6.164975003870000e-2
6.242520843210000e-2 6.321042089130000e-2 6.400551010730000e-2 6.481060031450001e-2
6.562581730990001e-2 6.645128847270000e-2 6.728714278460001e-2 6.813351084940001e-2
6.899052491390000e-2 6.985831888830001e-2 7.073702836719999e-2 7.162679065060001e-2
7.252774476579999e-2 7.344003148870000e-2 7.436379336590000e-2 7.529917473720000e-2
7.624632175770001e-2 7.720538242100000e-2 7.817650658249999e-2 7.915984598220000e-2
8.015555426880001e-2 8.116378702390000e-2 8.218470178579999e-2 8.321845807460001e-2
8.426521741680000e-2 8.532514337060000e-2 8.639840155169999e-2 8.748515965879999e-2
8.858558750009999e-2 8.969985701970000e-2 9.082814232440001e-2 9.197061971120000e-2
9.312746769440000e-2 9.429886703390000e-2 9.548500076320000e-2 9.668605421819999e-2
9.790221506580000e-2 9.913367333370001e-2 1.003806214400000e-1 1.016432542220000e-1
1.029217689700000e-1 1.042163654530000e-1 1.055272459560000e-1 1.068546153050000e-1
1.081986809060000e-1 1.095596527700000e-1 1.109377435540000e-1 1.123331685850000e-1
1.137461459020000e-1 1.151768962870000e-1 1.166256432950000e-1 1.180926132980000e-1
1.195780355110000e-1 1.210821420360000e-1 1.226051678920000e-1 1.241473510550000e-1
1.257089324950000e-1 1.272901562100000e-1 1.288912692720000e-1 1.305125218560000e-1
1.321541672880000e-1 1.338164620770000e-1 1.354996659600000e-1 1.372040419430000e-1
1.389298563350000e-1 1.406773788010000e-1 1.424468823930000e-1 1.442386436000000e-1
1.460529423890000e-1 1.478900622470000e-1 1.497502902280000e-1 1.516339169970000e-1
1.535412368740000e-1 1.554725478820000e-1 1.574281517910000e-1 1.594083541700000e-1
1.614134644280000e-1 1.634437958680000e-1 1.654996657340000e-1 1.675813952590000e-1
1.696893097190000e-1 1.718237384780000e-1 1.739850150460000e-1 1.761734771260000e-1
1.783894666710000e-1 1.806333299330000e-1 1.829054175200000e-1 1.852060844510000e-1
1.875356902090000e-1 1.898945988010000e-1 1.922831788100000e-1 1.947018034560000e-1
1.971508506560000e-1 1.996307030770000e-1 2.021417482020000e-1 2.046843783860000e-1
2.072589909210000e-1 2.098659880940000e-1 2.125057772560000e-1 2.151787708770000e-1
2.178853866190000e-1 2.206260473960000e-1 2.234011814420000e-1 2.262112223770000e-1
2.290566092750000e-1 2.319377867350000e-1 2.348552049460000e-1 2.378093197600000e-1
2.408005927650000e-1 2.438294913520000e-1 2.468964887930000e-1 2.500020643130000e-1
2.531467031640000e-1 2.563308967020000e-1 2.595551424650000e-1 2.628199442470000e-1
2.661258121790000e-1 2.694732628110000e-1 2.728628191890000e-1 2.762950109380000e-1
2.797703743440000e-1 2.832894524400000e-1 2.868527950890000e-1 2.904609590720000e-1
2.941145081700000e-1 2.978140132580000e-1 3.015600523920000e-1 3.053532108980000e-1
3.091940814640000e-1 3.130832642340000e-1 3.170213669010000e-1 3.210090048020000e-1
3.250468010130000e-1 3.291353864480000e-1 3.332753999570000e-1 3.374674884250000e-1
3.417123068750000e-1 3.460105185680000e-1 3.503627951080000e-1 3.547698165480000e-1
3.592322714930000e-1 3.637508572120000e-1 3.683262797430000e-1 3.729592540030000e-1
3.776505039070000e-1 3.824007624690000e-1 3.872107719290000e-1 3.920812838600000e-1
3.970130592890000e-1 4.020068688160000e-1 4.070634927340000e-1 4.121837211520000e-1
4.173683541140000e-1 4.226182017310000e-1 4.279340843020000e-1 4.333168324440000e-1
4.387672872220000e-1 4.442863002820000e-1 4.498747339800000e-1 4.555334615210000e-1
4.612633670920000e-1 4.670653460020000e-1 4.729403048230000e-1 4.788891615290000e-1
4.849128456410000e-1 4.910122983710000e-1 4.971884727720000e-1 5.034423338840000e-1
5.097748588840000e-1 5.161870372430000e-1 5.226798708770000e-1 5.292543743040000e-1
5.359115748040000e-1 5.426525125770000e-1 5.494782409100000e-1 5.563898263360000e-1
5.633883488040000e-1 5.704749018479999e-1 5.776505927570001e-1 5.849165427450000e-1
5.922738871330000e-1 5.997237755210000e-1 6.072673719690000e-1 6.149058551800000e-1
6.226404186809999e-1 6.304722710150000e-1 6.384026359240000e-1 6.464327525430001e-1
6.545638755950000e-1 6.627972755850000e-1 6.711342389970000e-1 6.795760684990000e-1
6.881240831450000e-1 6.967796185789999e-1 7.055440272459999e-1 7.144186786020001e-1
7.234049593310000e-1 7.325042735560000e-1 7.417180430640000e-1 7.510477075260001e-1
7.604947247190000e-1 7.700605707610000e-1 7.797467403340001e-1 7.895547469210000e-1
7.994861230440000e-1 8.095424205000000e-1 8.197252106060001e-1 8.300360844449999e-1
8.404766531100000e-1 8.510485479620000e-1 8.617534208810000e-1 8.725929445260000e-1
8.835688125930000e-1 8.946827400850001e-1 9.059364635760000e-1 9.173317414820000e-1
9.288703543390000e-1 9.405541050780000e-1 9.523848193099999e-1 9.643643456080000e-1
9.764945557970000e-1 9.887773452459999e-1 1.001214633170000e0 1.013808362910000e0
1.026560502280000e0 1.039473043810000e0 1.052548005120000e0 1.065787429190000e0
1.079193384730000e0 1.092767966420000e0 1.106513295330000e0 1.120431519190000e0
1.134524812760000e0 1.148795378140000e0 1.163245445140000e0 1.177877271600000e0
1.192693143780000e0 1.207695376690000e0 1.222886314460000e0 1.238268330710000e0
1.253843828900000e0
</PP_RAB>
</PP_MESH>
<PP_LOCAL columns="4">
-2.081661222290000e1 -2.081663663660000e1 -2.081666170890000e1 -2.081668745510000e1
-2.081671389040000e1 -2.081674102990000e1 -2.081676901160000e1 -2.081679627700000e1
-2.081682582970000e1 -2.081685613030000e1 -2.081688719780000e1 -2.081691905140000e1
-2.081695171130000e1 -2.081698519800000e1 -2.081701953220000e1 -2.081705473500000e1
-2.081709082890000e1 -2.081712783600000e1 -2.081716577980000e1 -2.081720468410000e1
-2.081724202300000e1 -2.081728285420000e1 -2.081732471860000e1 -2.081736764240000e1
-2.081740963620000e1 -2.081745470700000e1 -2.081750091830000e1 -2.081754829900000e1
-2.081759687850000e1 -2.081764668760000e1 -2.081769775660000e1 -2.081775011800000e1
-2.081780380410000e1 -2.081785884880000e1 -2.081791528660000e1 -2.081797315210000e1
-2.081803248170000e1 -2.081809331250000e1 -2.081815568260000e1 -2.081821963090000e1
-2.081828519720000e1 -2.081835242220000e1 -2.081842134780000e1 -2.081849201750000e1
-2.081856075090000e1 -2.081863494550000e1 -2.081871101720000e1 -2.081878625400000e1
-2.081886615230000e1 -2.081894807190000e1 -2.081903206310000e1 -2.081911817940000e1
-2.081920647390000e1 -2.081929700250000e1 -2.081938982050000e1 -2.081948498610000e1
-2.081958255970000e1 -2.081968260090000e1 -2.081978517270000e1 -2.081989033760000e1
-2.081999816290000e1 -2.082010871540000e1 -2.082022206310000e1 -2.082033827730000e1
-2.082045743020000e1 -2.082057959820000e1 -2.082070485530000e1 -2.082083328010000e1
-2.082096495450000e1 -2.082109995810000e1 -2.082123837610000e1 -2.082138029270000e1
-2.082152579770000e1 -2.082167498120000e1 -2.082182793350000e1 -2.082198475260000e1
-2.082214553690000e1 -2.082230403340000e1 -2.082247288620000e1 -2.082264182550000e1
-2.082281921790000e1 -2.082300109240000e1 -2.082318756660000e1 -2.082337875460000e1
-2.082357477320000e1 -2.082377574550000e1 -2.082398179580000e1 -2.082419305240000e1
-2.082440964690000e1 -2.082463171490000e1 -2.082485939360000e1 -2.082509282560000e1
-2.082533215470000e1 -2.082557753040000e1 -2.082582910310000e1 -2.082608702970000e1
-2.082635147270000e1 -2.082662259300000e1 -2.082690056200000e1 -2.082718555110000e1
-2.082747773560000e1 -2.082777729920000e1 -2.082808442620000e1 -2.082839930680000e1
-2.082872213830000e1 -2.082905311910000e1 -2.082939245490000e1 -2.082974035630000e1
-2.083009703600000e1 -2.083046271590000e1 -2.083083762450000e1 -2.083122199170000e1
-2.083161605740000e1 -2.083202006630000e1 -2.083243426490000e1 -2.083285891090000e1
-2.083329426830000e1 -2.083374060510000e1 -2.083419819660000e1 -2.083466732920000e1
-2.083514828830000e1 -2.083564136970000e1 -2.083614688250000e1 -2.083666513330000e1
-2.083719644340000e1 -2.083774114620000e1 -2.083829957260000e1 -2.083887206740000e1
-2.083945898440000e1 -2.084006067920000e1 -2.084067752220000e1 -2.084130989710000e1
-2.084195818990000e1 -2.084260583740000e1 -2.084327837540000e1 -2.084397621970000e1
-2.084469162180000e1 -2.084542501120000e1 -2.084617685150000e1 -2.084694760620000e1
-2.084773773700000e1 -2.084854772880000e1 -2.084937808750000e1 -2.085022931370000e1
-2.085110191890000e1 -2.085199645560000e1 -2.085291346700000e1 -2.085385349350000e1
-2.085481712200000e1 -2.085580494550000e1 -2.085681755650000e1 -2.085785557640000e1
-2.085891963720000e1 -2.086001039320000e1 -2.086112850040000e1 -2.086227460830000e1
-2.086344943780000e1 -2.086465372450000e1 -2.086588817130000e1 -2.086715352460000e1
-2.086845057290000e1 -2.086978009450000e1 -2.087114285970000e1 -2.087253968260000e1
-2.087397144190000e1 -2.087543902340000e1 -2.087694327560000e1 -2.087848508160000e1
-2.088006539540000e1 -2.088168516570000e1 -2.088334535430000e1 -2.088504696410000e1
-2.088679100920000e1 -2.088857852400000e1 -2.089041057330000e1 -2.089228825960000e1
-2.089421271490000e1 -2.089618507200000e1 -2.089820647650000e1 -2.090027812310000e1
-2.090240124530000e1 -2.090457710950000e1 -2.090680700650000e1 -2.090909225550000e1
-2.091143420410000e1 -2.091383420710000e1 -2.091629365890000e1 -2.091881402760000e1
-2.092139679140000e1 -2.092404343240000e1 -2.092675551300000e1 -2.092953460720000e1
-2.093238230580000e1 -2.093530029060000e1 -2.093829025590000e1 -2.094135388020000e1
-2.094449294000000e1 -2.094770928390000e1 -2.095100472040000e1 -2.095438111660000e1
-2.095784041800000e1 -2.096138459010000e1 -2.096501567600000e1 -2.096873572400000e1
-2.097254678750000e1 -2.097645106300000e1 -2.098045075350000e1 -2.098454806540000e1
-2.098874531520000e1 -2.099304482360000e1 -2.099744897330000e1 -2.100196022730000e1
-2.100658107000000e1 -2.101131405320000e1 -2.101616175740000e1 -2.102112682050000e1
-2.102621197160000e1 -2.103141996150000e1 -2.103675359290000e1 -2.104221575990000e1
-2.104780939630000e1 -2.105353748020000e1 -2.105940306220000e1 -2.106540922750000e1
-2.107155917000000e1 -2.107785614090000e1 -2.108430336750000e1 -2.109090423780000e1
-2.109766222060000e1 -2.110458072280000e1 -2.111166326960000e1 -2.111891353720000e1
-2.112633518690000e1 -2.113393191570000e1 -2.114170755660000e1 -2.114966599750000e1
-2.115781115820000e1 -2.116614704130000e1 -2.117467771300000e1 -2.118340730080000e1
-2.119234002960000e1 -2.120148017950000e1 -2.121083208980000e1 -2.122040015110000e1
-2.123018882280000e1 -2.124020266120000e1 -2.125044625810000e1 -2.126092428210000e1
-2.127164148290000e1 -2.128260264740000e1 -2.129381262440000e1 -2.130527633620000e1
-2.131699876860000e1 -2.132898496490000e1 -2.134124002580000e1 -2.135376910620000e1
-2.136657742160000e1 -2.137967020600000e1 -2.139305276340000e1 -2.140673051080000e1
-2.142070884890000e1 -2.143499319190000e1 -2.144958903380000e1 -2.146450192570000e1
-2.147973743630000e1 -2.149530114970000e1 -2.151119870500000e1 -2.152743573960000e1
-2.154401790350000e1 -2.156095090280000e1 -2.157824042180000e1 -2.159589213060000e1
-2.161391175470000e1 -2.163230499550000e1 -2.165107752890000e1 -2.167023501740000e1
-2.168978307750000e1 -2.170972731790000e1 -2.173007332070000e1 -2.175082660770000e1
-2.177199263970000e1 -2.179357683180000e1 -2.181558452750000e1 -2.183802098230000e1
-2.186089133890000e1 -2.188420066590000e1 -2.190795394180000e1 -2.193215599930000e1
-2.195681155590000e1 -2.198192517300000e1 -2.200750125210000e1 -2.203354401120000e1
-2.206005750670000e1 -2.208704564620000e1 -2.211451211050000e1 -2.214246032830000e1
-2.217089346520000e1 -2.219981447830000e1 -2.222922609170000e1 -2.225913069910000e1
-2.228953040020000e1 -2.232042700080000e1 -2.235182196350000e1 -2.238371641110000e1
-2.241611108990000e1 -2.244900634850000e1 -2.248240215840000e1 -2.251629807180000e1
-2.255069318740000e1 -2.258558613790000e1 -2.262097507620000e1 -2.265685766500000e1
-2.269323105020000e1 -2.273009186000000e1 -2.276743613020000e1 -2.280525930430000e1
-2.284355627210000e1 -2.288232128630000e1 -2.292154796300000e1 -2.296122926210000e1
-2.300135745290000e1 -2.304192411920000e1 -2.308292010820000e1 -2.312433555940000e1
-2.316615986400000e1 -2.320838160030000e1 -2.325098859100000e1 -2.329396785530000e1
-2.333730558370000e1 -2.338098713800000e1 -2.342499701780000e1 -2.346931886680000e1
-2.351393544000000e1 -2.355882860760000e1 -2.360397936170000e1 -2.364936778000000e1
-2.369497301480000e1 -2.374077330990000e1 -2.378674599630000e1 -2.383286744690000e1
-2.387911311250000e1 -2.392545753380000e1 -2.397187430530000e1 -2.401833610310000e1
-2.406481469810000e1 -2.411128095650000e1 -2.415770483470000e1 -2.420405537600000e1
-2.425030075290000e1 -2.429640831770000e1 -2.434234458300000e1 -2.438807521330000e1
-2.443356509920000e1 -2.447877835620000e1 -2.452367835270000e1 -2.456822777360000e1
-2.461238861070000e1 -2.465612222010000e1 -2.469938936120000e1 -2.474215022560000e1
-2.478436450610000e1 -2.482599141320000e1 -2.486698973800000e1 -2.490731792060000e1
-2.494693407580000e1 -2.498579605260000e1 -2.502386150970001e1 -2.506108797080000e1
-2.509743288070000e1 -2.513285367850000e1 -2.516730786140000e1 -2.520075306290000e1
-2.523314713030000e1 -2.526444817470000e1 -2.529461465610000e1 -2.532360547990000e1
-2.535138006400000e1 -2.537789842760001e1 -2.540312126820000e1 -2.542701003050000e1
-2.544952700840000e1 -2.547063544670000e1 -2.549029961510000e1 -2.550848488990000e1
-2.552515785110000e1 -2.554028636120000e1 -2.555383966320000e1 -2.556578848610000e1
-2.557610511030000e1 -2.558476345950000e1 -2.559173920090000e1 -2.559700982240000e1
-2.560055472380000e1 -2.560235529510000e1 -2.560239499890000e1 -2.560065945470000e1
-2.559713651690000e1 -2.559181634300000e1 -2.558469146390000e1 -2.557575685780000e1
-2.556501000070000e1 -2.555245093350000e1 -2.553808231880000e1 -2.552190947580000e1
-2.550394042220000e1 -2.548418591930000e1 -2.546265949650000e1 -2.543937746460000e1
-2.541435893220000e1 -2.538762581830000e1 -2.535920284480000e1 -2.532911752000000e1
-2.529740012150000e1 -2.526408366530000e1 -2.522920386770000e1 -2.519279909090000e1
-2.515491028860000e1 -2.511558094090000e1 -2.507485696460000e1 -2.503278662960000e1
-2.498942046240000e1 -2.494481113100000e1 -2.489901333630000e1 -2.485208368040000e1
-2.480408052780000e1 -2.475506387110000e1 -2.470509517590000e1 -2.465423721870000e1
-2.460255392840000e1 -2.455011021730000e1 -2.449697180380000e1 -2.444320503490000e1
-2.438887670720000e1 -2.433405388210000e1 -2.427880370390000e1 -2.422319321390000e1
-2.416728916740000e1 -2.411115785390000e1 -2.405486491730001e1 -2.399847518260000e1
-2.394205248610000e1 -2.388565951110000e1 -2.382935763090000e1 -2.377320675950000e1
-2.371726520890000e1 -2.366158955600000e1 -2.360623451930000e1 -2.355125284560000e1
-2.349669520660000e1 -2.344261010540000e1 -2.338904379580000e1 -2.333604021180000e1
-2.328364090820000e1 -2.323188501350000e1 -2.318080919270000e1 -2.313044762230000e1
-2.308083197610000e1 -2.303199142110000e1 -2.298395262410000e1 -2.293673976810000e1
-2.289037457820000e1 -2.284487635590000e1 -2.280026202250000e1 -2.275654616990000e1
-2.271374111800000e1 -2.267185698020000e1 -2.263090173270000e1 -2.259088129010000e1
-2.255179958640000e1 -2.251365865860000e1 -2.247645873350000e1 -2.244019831810000e1
-2.240487429170000e1 -2.237048199880000e1 -2.233701534350000e1 -2.230446688460000e1
-2.227282792950000e1 -2.224208862790000e1 -2.221223806460000e1 -2.218326435060000e1
-2.215515471290000e1 -2.212789558060000e1 -2.210147266980000e1 -2.207587106590000e1
-2.205107530170000e1 -2.202706943290000e1 -2.200383711040000e1 -2.198136164890000e1
-2.195962609180000e1 -2.193861327250000e1 -2.191830587160000e1 -2.189868647060000e1
-2.187973760160000e1 -2.186144179380000e1 -2.184378161510000e1 -2.182673971080000e1
-2.181029883860000e1 -2.179444189920000e1 -2.177915196450000e1 -2.176441230170000e1
-2.175020639390000e1 -2.173651795800000e1 -2.172333095940000e1 -2.171062962330000e1
-2.169839844300000e1 -2.168662218670000e1 -2.167528590000000e1 -2.166437490680000e1
-2.165387480780000e1 -2.164377147650000e1 -2.163405105270000e1 -2.162469993510000e1
-2.161570477040000e1 -2.160705244140000e1 -2.159873005360000e1 -2.159072491960000e1
-2.158302454220000e1 -2.157561659580000e1 -2.156848890670000e1 -2.156162943240000e1
-2.155502623840000e1 -2.154866747580000e1 -2.154254135570000e1 -2.153663612480000e1
-2.153094003810000e1 -2.152544133200000e1 -2.152012819650000e1 -2.151498874610000e1
-2.151001099070000e1 -2.150518280600000e1 -2.150049190250000e1 -2.149592579590000e1
-2.149147177540000e1 -2.148711687320000e1 -2.148284783330000e1 -2.147865108060000e1
-2.147451269020000e1 -2.147041835730000e1 -2.146635336730000e1 -2.146230256670000e1
-2.145825033530000e1 -2.145418055920000e1 -2.145007660500000e1 -2.144592129570000e1
-2.144169688930000e1 -2.143738505800000e1 -2.143296687110000e1 -2.142842278010000e1
-2.142373260720000e1 -2.141887553710000e1 -2.141383011270000e1 -2.140857423510000e1
-2.140308516780000e1 -2.139733954710000e1 -2.139131339670000e1 -2.138498214890000e1
-2.137832067200000e1 -2.137130330490000e1 -2.136390389780000e1 -2.135609586160000e1
-2.134785222460000e1 -2.133914569750000e1 -2.132994874730000e1 -2.132023367900000e1
-2.130997272740000e1 -2.129913815700000e1 -2.128770237040000e1 -2.127563802700000e1
-2.126291816820000e1 -2.124951635220000e1 -2.123540679560000e1 -2.122056452180000e1
-2.120496551560000e1 -2.118858688210000e1 -2.117140701010000e1 -2.115340573660000e1
-2.113456451240000e1 -2.111486656630000e1 -2.109429706550000e1 -2.107284327130000e1
-2.105049468590000e1 -2.102724319000000e1 -2.100308316690000e1 -2.097801161140000e1
-2.095202822090000e1 -2.092513546600000e1 -2.089733863880000e1 -2.086864587570000e1
-2.083906815400000e1 -2.080861925930000e1 -2.077731572440000e1 -2.074517673710000e1
-2.071222401750000e1 -2.067848166570000e1 -2.064397597930000e1 -2.060873524370000e1
-2.057278949660000e1 -2.053617026940000e1 -2.049891030860000e1 -2.046104328170000e1
-2.042260346990000e1 -2.038362545460000e1 -2.034414379900000e1 -2.030419273210000e1
-2.026380583780000e1 -2.022301575330000e1 -2.018185388170000e1 -2.014035012010000e1
-2.009853260750000e1 -2.005642749320000e1 -2.001405872620000e1 -1.997144786750000e1
-1.992861392180000e1 -1.988557319030000e1 -1.984233913780000e1 -1.979892227530000e1
-1.975533005020000e1 -1.971156674250000e1 -1.966763335930000e1 -1.962352752460000e1
-1.957924335730000e1 -1.953477133250000e1 -1.949009812080000e1 -1.944520640030000e1
-1.940007463830000e1 -1.935467683770000e1 -1.930898224820000e1 -1.926295503910000e1
-1.921655393850000e1 -1.916973183880000e1 -1.912243537680000e1 -1.907460449740000e1
-1.902617201060000e1 -1.897706316050000e1 -1.892719522100000e1 -1.887647714460000e1
-1.882480928530000e1 -1.877208322550000e1 -1.871818173590000e1 -1.866297889630000e1
-1.860634040740000e1 -1.854812411880000e1 -1.848818079290000e1 -1.842635511960000e1
-1.836248698450000e1 -1.829641298630000e1 -1.822796818060000e1 -1.815698802140000e1
-1.808331045140000e1 -1.800677808470000e1 -1.792724041440000e1 -1.784455597060000e1
-1.775859435230000e1 -1.766923805880000e1 -1.757638405520000e1 -1.747994501430000e1
-1.737985019900000e1 -1.727604596170000e1 -1.716849586270000e1 -1.705718042530000e1
-1.694209656640000e1 -1.682325675490000e1 -1.670068796290000e1 -1.657443047780000e1
-1.644453665070000e1 -1.631106964750000e1 -1.617410226580000e1 -1.603371587140000e1
-1.588999949320000e1 -1.574304910630000e1 -1.559296711730000e1 -1.543986205740000e1
-1.528384847380000e1 -1.512504700660000e1 -1.496358462760000e1 -1.479959501400000e1
-1.463321902890000e1 -1.446460527450000e1 -1.429391068880000e1 -1.412130115420000e1
-1.394695208800000e1 -1.377104898790000e1 -1.359378790630000e1 -1.341537582850000e1
-1.323603093340000e1 -1.305598271510000e1 -1.287547194490000e1 -1.269475045580000e1
-1.251408073010000e1 -1.233373527130000e1 -1.215399574300000e1 -1.197515185620000e1
-1.179749998750000e1 -1.162134150990000e1 -1.144698081920000e1 -1.127472303850000e1
-1.110487138690000e1 -1.093772419950000e1 -1.077357158850000e1 -1.061269174160000e1
-1.045534685830000e1 -1.030177873420000e1 -1.015220401630000e1 -1.000680916300000e1
-9.865745163440000e0 -9.729122091580001e0 -9.597003600310000e0 -9.469401494300000e0
-9.346270562670000e0 -9.227503902280001e0 -9.112929024000000e0 -9.002305107170001e0
-8.895321852810000e0 -8.791600486220000e0 -8.690697578640000e0 -8.592112496610000e0
-8.495299449379999e0 -8.399685291230000e0 -8.304694454470001e0 -8.209782644990000e0
-8.114481229410000e0 -8.018454590290000e0 -7.921573134330000e0 -7.824053363470000e0
-7.726719765190000e0 -7.630633506130000e0 -7.535799608630000e0 -7.441949573000000e0
-7.349009012350000e0 -7.257010142410000e0 -7.166218984520000e0 -7.076911926060000e0
-6.988967835090000e0 -6.902160419190000e0 -6.816429913030000e0 -6.731763101840000e0
-6.648146919130000e0 -6.565568445900000e0 -6.484014910410000e0 -6.403473687160000e0
-6.323932295910000e0 -6.245378401390000e0 -6.167799811980000e0 -6.091184479820000e0
-6.015520499370000e0 -5.940796103510000e0 -5.866999667120000e0 -5.794119705320000e0
-5.722144867490000e0 -5.651063933590000e0 -5.580865773360000e0 -5.511539490390000e0
-5.443074410830000e0 -5.375459823450000e0 -5.308685100500000e0 -5.242739814610000e0
-5.177613672120000e0 -5.113296505460000e0 -5.049778271910000e0 -4.987049052190000e0
-4.925099049130000e0 -4.863918586380000e0 -4.803498106980000e0 -4.743828172090000e0
-4.684899459610000e0 -4.626702762860000e0 -4.569228989260000e0 -4.512469158960000e0
-4.456414403530000e0 -4.401055964660000e0 -4.346385192800000e0 -4.292393545870000e0
-4.239072587940000e0 -4.186413987920000e0 -4.134409518300000e0 -4.083051053810000e0
-4.032330570200000e0 -3.982240142950000e0 -3.932771946020000e0 -3.883918250620000e0
-3.835671423990000e0 -3.788023928170000e0 -3.740968318870000e0 -3.694497244210000e0
-3.648603443630000e0 -3.603279746690000e0 -3.558519071990000e0 -3.514314426040000e0
-3.470658902140000e0 -3.427545679320000e0 -3.384968021270000e0 -3.342919275290000e0
-3.301392871220000e0 -3.260382320470000e0 -3.219881214980000e0 -3.179883226200000e0
-3.140382104160000e0 -3.101371676460000e0 -3.062845847330000e0 -3.024798596680000e0
-2.987223979180000e0 -2.950116123340000e0 -2.913469230580000e0 -2.877277574310000e0
-2.841535499120000e0 -2.806237419870000e0 -2.771377820770000e0 -2.736951254600000e0
-2.702952341810000e0 -2.669375769690000e0 -2.636216291590000e0 -2.603468726020000e0
-2.571127955920000e0 -2.539188927810000e0 -2.507646651000000e0 -2.476496196860000e0
-2.445732697980000e0 -2.415351347450000e0 -2.385347398090000e0 -2.355716161730000e0
-2.326453008450000e0 -2.297553365840000e0 -2.269012718320000e0 -2.240826606440000e0
-2.212990626120000e0 -2.185500428010000e0 -2.158351716810000e0 -2.131540250570000e0
-2.105061840050000e0 -2.078912348030000e0 -2.053087688720000e0 -2.027583827060000e0
-2.002396778120000e0 -1.977522606480000e0 -1.952957425600000e0 -1.928697397210000e0
-1.904738730750000e0 -1.881077682700000e0 -1.857710556080000e0 -1.834633699800000e0
-1.811843508140000e0 -1.789336420170000e0 -1.767108919180000e0 -1.745157532160000e0
-1.723478829220000e0 -1.702069423070000e0 -1.680925968530000e0 -1.660045161930000e0
-1.639423740660000e0 -1.619058482630000e0 -1.598946205770000e0 -1.579083767530000e0
-1.559468064410000e0 -1.540096031460000e0 -1.520964641770000e0 -1.502070906070000e0
-1.483411872200000e0 -1.464984624660000e0 -1.446786284180000e0 -1.428814007260000e0
-1.411064985710000e0 -1.393536446220000e0 -1.376225649930000e0 -1.359129892000000e0
-1.342246501200000e0 -1.325572839470000e0 -1.309106301530000e0 -1.292844309040000e0
-1.276784332380000e0 -1.260923856160000e0 -1.245260402150000e0 -1.229791513900000e0
-1.214514793260000e0 -1.199427843250000e0 -1.184528306500000e0 -1.169813854930000e0
-1.155282189420000e0 -1.140931039000000e0 -1.126758163610000e0 -1.112761342110000e0
-1.098938337280000e0 -1.085287105940000e0 -1.071805452910000e0 -1.058491271680000e0
-1.045342481860000e0 -1.032357028940000e0 -1.019532883900000e0 -1.006868042960000e0
-9.943605272019999e-1 -9.820083823020001e-1 -9.698096782120000e-1 -9.577625088600000e-1
-9.458649918520001e-1 -9.341152681760001e-1 -9.225115019140000e-1 -9.110518799530000e-1
-8.997346117050000e-1 -8.885579288230000e-1 -8.775200849270000e-1 -8.666193553330000e-1
-8.558540367770000e-1 -8.452224471579999e-1 -8.347229252680000e-1 -8.243538305360000e-1
-8.141135427680000e-1 -8.040004618990000e-1 -7.940130077390000e-1 -7.841496197290000e-1
-7.744087566940000e-1 -7.647888966040000e-1 -7.552885363360000e-1 -7.459061914400000e-1
-7.366403959049999e-1 -7.274897019320000e-1 -7.184526797050000e-1 -7.095279171730001e-1
-7.007140197090001e-1 -6.920096103600000e-1 -6.834133289200000e-1 -6.749238322040000e-1
-6.665397937090000e-1 -6.582599034139999e-1 -6.500828675669999e-1 -6.420074084910000e-1
-6.340322643790000e-1 -6.261561890979999e-1 -6.183779519950000e-1 -6.106963377050000e-1
-6.031101459609999e-1 -5.956181914040000e-1 -5.882193034010000e-1 -5.809123258610000e-1
-5.736961170540001e-1 -5.665695494330000e-1 -5.595315094560000e-1 -5.525808974160000e-1
-5.457166272650000e-1 -5.389376264470000e-1 -5.322428357300000e-1 -5.256312090390000e-1
-5.191017132940000e-1 -5.126533282480001e-1 -5.062850463270000e-1 -4.999958724750000e-1
-4.937848239950000e-1 -4.876509303980000e-1 -4.815932332520000e-1 -4.756107860270000e-1
-4.697026539560000e-1 -4.638679138800000e-1 -4.581056541100000e-1 -4.524149742800000e-1
-4.467949852100000e-1 -4.412448087660000e-1 -4.357635777200001e-1 -4.303504356200000e-1
-4.250045366520000e-1 -4.197250455060000e-1 -4.145111372530000e-1 -4.093619972090000e-1
-4.042768208090000e-1 -3.992548134850000e-1 -3.942951905390000e-1 -3.893971770170000e-1
-3.845600075970000e-1 -3.797829264610000e-1 -3.750651871790000e-1 -3.704060525960000e-1
-3.658047947130000e-1 -3.612606945730000e-1 -3.567730421510000e-1 -3.523411362430000e-1
-3.479642843540000e-1 -3.436418025930000e-1 -3.393730155630000e-1 -3.351572562560000e-1
-3.309938659530000e-1 -3.268821941150000e-1 -3.228215982850000e-1 -3.188114439860000e-1
-3.148511046240000e-1 -3.109399613880000e-1 -3.070774031530000e-1 -3.032628263870000e-1
-2.994956350550000e-1 -2.957752405250000e-1 -2.921010614780000e-1 -2.884725238170000e-1
-2.848890605740000e-1 -2.813501118260000e-1 -2.778551246060000e-1 -2.744035528140000e-1
-2.709948571360000e-1 -2.676285049560000e-1 -2.643039702730000e-1 -2.610207336240000e-1
-2.577782819960000e-1 -2.545761087490000e-1 -2.514137135360000e-1 -2.482906022280000e-1
-2.452062868320000e-1 -2.421602854170000e-1 -2.391521220390000e-1 -2.361813266670000e-1
-2.332474351070000e-1 -2.303499889340000e-1 -2.274885354150000e-1 -2.246626274430000e-1
-2.218718234630000e-1 -2.191156874070000e-1 -2.163937886230000e-1 -2.137057018090000e-1
-2.110510069460000e-1 -2.084292892320000e-1 -2.058401390180000e-1 -2.032831517450000e-1
-2.007579278770000e-1 -1.982640728450000e-1 -1.958011969770000e-1 -1.933689154450000e-1
-1.909668481990000e-1 -1.885946199110000e-1 -1.862518599170000e-1 -1.839382021550000e-1
-1.816532851110000e-1 -1.793967517620000e-1 -1.771682495210000e-1 -1.749674301790000e-1
-1.727939498550000e-1 -1.706474689360000e-1 -1.685276520320000e-1 -1.664341679160000e-1
-1.643666894770000e-1 -1.623248936690000e-1 -1.603084614550000e-1 -1.583170777640000e-1
-1.563504314390000e-1 -1.544082151870000e-1 -1.524901255320000e-1 -1.505958627700000e-1
-1.487251309180000e-1 -1.468776376700000e-1 -1.450530943520000e-1 -1.432512158750000e-1
-1.414717206920000e-1 -1.397143307530000e-1 -1.379787714620000e-1 -1.362647716360000e-1
-1.345720634570000e-1 -1.329003824370000e-1 -1.312494673720000e-1 -1.296190603030000e-1
-1.280089064760000e-1 -1.264187543010000e-1 -1.248483553140000e-1 -1.232974641360000e-1
-1.217658384380000e-1 -1.202532389000000e-1 -1.187594291750000e-1 -1.172841758530000e-1
-1.158272484210000e-1 -1.143884192330000e-1 -1.129674634680000e-1 -1.115641590990000e-1
-1.101782868570000e-1 -1.088096301970000e-1 -1.074579752620000e-1 -1.061231108550000e-1
-1.048048284000000e-1 -1.035029219120000e-1 -1.022171879670000e-1 -1.009474256650000e-1
-9.969343660349999e-2
</PP_LOCAL>
<PP_NONLOCAL>
<PP_BETA.1 index="1" label="2S" angular_momentum="0" cutoff_radius_index="751" cutoff_radius="1.400000000000e0" ultrasoft_cutoff_radius="1.600000000000e0">
-1.273133143320000e-3 -1.289147186570000e-3 -1.305362661690000e-3 -1.321782102360000e-3
-1.338388168730000e-3 -1.355212941970000e-3 -1.372261230940000e-3 -1.389472563250000e-3
-1.406993842640000e-3 -1.424664453060000e-3 -1.442597952960000e-3 -1.460716374740000e-3
-1.479103854480000e-3 -1.497720798040000e-3 -1.516577156650000e-3 -1.535615888070000e-3
-1.554937492040000e-3 -1.574491120730000e-3 -1.594305809470000e-3 -1.614323719350000e-3
-1.634677018060000e-3 -1.655203049770000e-3 -1.676042726860000e-3 -1.697091236560000e-3
-1.718488825520000e-3 -1.740073937260000e-3 -1.761962991480000e-3 -1.784111344960000e-3
-1.806568130190000e-3 -1.829272982130000e-3 -1.852285702870000e-3 -1.875587630410000e-3
-1.899159637440000e-3 -1.923079250130000e-3 -1.947241154540000e-3 -1.971748340160000e-3
-1.996513441240000e-3 -2.021621713840000e-3 -2.047079720630000e-3 -2.072804607520000e-3
-2.098903322720000e-3 -2.125263535940000e-3 -2.151987216750000e-3 -2.179092496330000e-3
-2.206461011350000e-3 -2.234243991000000e-3 -2.262316084780000e-3 -2.290791717610000e-3
-2.319586625490000e-3 -2.348758686510000e-3 -2.378275560930000e-3 -2.408236244500000e-3
-2.438466680050000e-3 -2.469174272730000e-3 -2.500218256320000e-3 -2.531642808000000e-3
-2.563515725510000e-3 -2.595709371800000e-3 -2.628392940380000e-3 -2.661423611190000e-3
-2.694894640580000e-3 -2.728780225280000e-3 -2.763078985200000e-3 -2.797842478450000e-3
-2.833022315630000e-3 -2.868647865120000e-3 -2.904724986810000e-3 -2.941249741550000e-3
-2.978243785800000e-3 -3.015675169300000e-3 -3.053613447820000e-3 -3.092006238660000e-3
-3.130881067350000e-3 -3.170272789380000e-3 -3.210115264680000e-3 -3.250489911240000e-3
-3.291352013450000e-3 -3.332731748920001e-3 -3.374649569690000e-3 -3.417073839220000e-3
-3.460064290390000e-3 -3.503541405560000e-3 -3.547584860230000e-3 -3.592217429690000e-3
-3.637369260060000e-3 -3.683106605950000e-3 -3.729402165240000e-3 -3.776294870550001e-3
-3.823776100820000e-3 -3.871849393930000e-3 -3.920522572760000e-3 -3.969813615720000e-3
-4.019700200890000e-3 -4.070253417530000e-3 -4.121418293380000e-3 -4.173225852530000e-3
-4.225696768190000e-3 -4.278806016540000e-3 -4.332612411120000e-3 -4.387068669390000e-3
-4.442209766280000e-3 -4.498056221400000e-3 -4.554580309200000e-3 -4.611850217370001e-3
-4.669798506250000e-3 -4.728500710950001e-3 -4.787942959830000e-3 -4.848111084080001e-3
-4.909059521390001e-3 -4.970738483770000e-3 -5.033213067480000e-3 -5.096474248600000e-3
-5.160516390450000e-3 -5.225373885530001e-3 -5.291046416500000e-3 -5.357532907980000e-3
-5.424856553860000e-3 -5.493031771060000e-3 -5.562041094229999e-3 -5.631937983090001e-3
-5.702696569580000e-3 -5.774354310580000e-3 -5.846899212340000e-3 -5.920363412510000e-3
-5.994742237040001e-3 -6.070060622500000e-3 -6.146318159530000e-3 -6.223517959100000e-3
-6.301716530690000e-3 -6.380866704360000e-3 -6.461012323080000e-3 -6.542166934380001e-3
-6.624334725960001e-3 -6.707550211080000e-3 -6.791777042240001e-3 -6.877080614350001e-3
-6.963447197920001e-3 -7.050880351040000e-3 -7.139437932890001e-3 -7.229073718100000e-3
-7.319848237130000e-3 -7.411749563549998e-3 -7.504798856120000e-3 -7.599032287240000e-3
-7.694418643640000e-3 -7.791012664660000e-3 -7.888813598000000e-3 -7.987822665049999e-3
-8.088087713889999e-3 -8.189591264000001e-3 -8.292367920330001e-3 -8.396434636010000e-3
-8.501794100940000e-3 -8.608475442370001e-3 -8.716491661740001e-3 -8.825839314620000e-3
-8.936566034909999e-3 -9.048664333910001e-3 -9.162170090090001e-3 -9.277082868530002e-3
-9.393438053539999e-3 -9.511242634360000e-3 -9.630505492390000e-3 -9.751268717620000e-3
-9.873514217170001e-3 -9.997311613330000e-3 -1.012262926360000e-2 -1.024950757160000e-2
-1.037798180800000e-2 -1.050803185030000e-2 -1.063971887610000e-2 -1.077303633870000e-2
-1.090800309560000e-2 -1.104466070550000e-2 -1.118299745560000e-2 -1.132307970320000e-2
-1.146487633410000e-2 -1.160844852930000e-2 -1.175380013930000e-2 -1.190094496140000e-2
-1.204992130630000e-2 -1.220073974500000e-2 -1.235342847520000e-2 -1.250801180060000e-2
-1.266450025730000e-2 -1.282293868460000e-2 -1.298332221120000e-2 -1.314569734630000e-2
-1.331008595790000e-2 -1.347648197470000e-2 -1.364495636410000e-2 -1.381550189150000e-2
-1.398814297570000e-2 -1.416292585070000e-2 -1.433985196080000e-2 -1.451896557330000e-2
-1.470027599400000e-2 -1.488382318700000e-2 -1.506962782190000e-2 -1.525770571140000e-2
-1.544810718020000e-2 -1.564083261980000e-2 -1.583592758570000e-2 -1.603342278810000e-2
-1.623331609130000e-2 -1.643567522140000e-2 -1.664050549090000e-2 -1.684783152870000e-2
-1.705770652940000e-2 -1.727012293930000e-2 -1.748514598530000e-2 -1.770278236800000e-2
-1.792306503700000e-2 -1.814603909470000e-2 -1.837171076670000e-2 -1.860013168920000e-2
-1.883132324060000e-2 -1.906531062520000e-2 -1.930214102840000e-2 -1.954182758180000e-2
-1.978442244500000e-2 -2.002993573580000e-2 -2.027841666460000e-2 -2.052988987800000e-2
-2.078438186290000e-2 -2.104194714250000e-2 -2.130259287320000e-2 -2.156636557440000e-2
-2.183330630530000e-2 -2.210342988830000e-2 -2.237678401860000e-2 -2.265339801580000e-2
-2.293330951170000e-2 -2.321655013120000e-2 -2.350314957320000e-2 -2.379315505220000e-2
-2.408659279230000e-2 -2.438349541520000e-2 -2.468391151720000e-2 -2.498785454580000e-2
-2.529538410520000e-2 -2.560651858800000e-2 -2.592130199850000e-2 -2.623976740000000e-2
-2.656194918120000e-2 -2.688789097990000e-2 -2.721761876280000e-2 -2.755116710710000e-2
-2.788858925600000e-2 -2.822990000630000e-2 -2.857515211180000e-2 -2.892436880390000e-2
-2.927759311550000e-2 -2.963486258510000e-2 -2.999620573020000e-2 -3.036166562910000e-2
-3.073127223350000e-2 -3.110506420880000e-2 -3.148307580760000e-2 -3.186534058960000e-2
-3.225189801620000e-2 -3.264277629610000e-2 -3.303801334200001e-2 -3.343764314810000e-2
-3.384169876580001e-2 -3.425021252770000e-2 -3.466321844670000e-2 -3.508074783770000e-2
-3.550283296900000e-2 -3.592950543200000e-2 -3.636079860540000e-2 -3.679673568020000e-2
-3.723735285940000e-2 -3.768267781980001e-2 -3.813273433560000e-2 -3.858755704710000e-2
-3.904716603380000e-2 -3.951158926150000e-2 -3.998085487270000e-2 -4.045498044240000e-2
-4.093399282460000e-2 -4.141791223490000e-2 -4.190676031690000e-2 -4.240055579760000e-2
-4.289931580510000e-2 -4.340305694250000e-2 -4.391179689910000e-2 -4.442554358180001e-2
-4.494431769410000e-2 -4.546812125100000e-2 -4.599696753470000e-2 -4.653086359450000e-2
-4.706981086450001e-2 -4.761381624120000e-2 -4.816287697470000e-2 -4.871699626540000e-2
-4.927616492170000e-2 -4.984038095190000e-2 -5.040963431750000e-2 -5.098391294080001e-2
-5.156320581719999e-2 -5.214749337160000e-2 -5.273675561369999e-2 -5.333097350819999e-2
-5.393011734440000e-2 -5.453415760080000e-2 -5.514306379290001e-2 -5.575679924059999e-2
-5.637532101290001e-2 -5.699858850710000e-2 -5.762655025420001e-2 -5.825915687840000e-2
-5.889634849320000e-2 -5.953806689830000e-2 -6.018424319750000e-2 -6.083480887940000e-2
-6.148968584480000e-2 -6.214879473150000e-2 -6.281204628320001e-2 -6.347935087000001e-2
-6.415060994299999e-2 -6.482571895560001e-2 -6.550456723790000e-2 -6.618703834590001e-2
-6.687301044160000e-2 -6.756235158989999e-2 -6.825492465430000e-2 -6.895058738880000e-2
-6.964918491910000e-2 -7.035056194130000e-2 -7.105454564230000e-2 -7.176096557099999e-2
-7.246963423210000e-2 -7.318035939460001e-2 -7.389294173640000e-2 -7.460716865329999e-2
-7.532282053479999e-2 -7.603966820429999e-2 -7.675747264370001e-2 -7.747598526530000e-2
-7.819494465130000e-2 -7.891408128070000e-2 -7.963311494539999e-2 -8.035175343620001e-2
-8.106969530410002e-2 -8.178662332120000e-2 -8.250221409870001e-2 -8.321612876940000e-2
-8.392801692420001e-2 -8.463751812230001e-2 -8.534425693150000e-2 -8.604784623910000e-2
-8.674788769450000e-2 -8.744396881920000e-2 -8.813566338299999e-2 -8.882253329850000e-2
-8.950412838120002e-2 -9.017998270890001e-2 -9.084961914259999e-2 -9.151254761240001e-2
-9.216826304090000e-2 -9.281624848589999e-2 -9.345597413419998e-2 -9.408689701120000e-2
-9.470846217360000e-2 -9.532010001430001e-2 -9.592123126520001e-2 -9.651126357870000e-2
-9.708959255160000e-2 -9.765560439020000e-2 -9.820867287190000e-2 -9.874816221670001e-2
-9.927342749910000e-2 -9.978381533869999e-2 -1.002786639170000e-1 -1.007573036570000e-1
-1.012190595830000e-1 -1.016632517010000e-1 -1.020891959140000e-1 -1.024962049150000e-1
-1.028835895430000e-1 -1.032506617860000e-1 -1.035967358100000e-1 -1.039211272120000e-1
-1.042231571880000e-1 -1.045021567470000e-1 -1.047574620950000e-1 -1.049884247560000e-1
-1.051944085990000e-1 -1.053747937200000e-1 -1.055289820490000e-1 -1.056563951340000e-1
-1.057564825240000e-1 -1.058287213640000e-1 -1.058726225260000e-1 -1.058877321930000e-1
-1.058736368160000e-1 -1.058299683880000e-1 -1.057564057340000e-1 -1.056526843810000e-1
-1.055185943120000e-1 -1.053539916980000e-1 -1.051587990450000e-1 -1.049330151630000e-1
-1.046767172420000e-1 -1.043900682380000e-1 -1.040733230980000e-1 -1.037268356520000e-1
-1.033510636510000e-1 -1.029465762040000e-1 -1.025140630850000e-1 -1.020543363290000e-1
-1.015683442710000e-1 -1.010571728230000e-1 -1.005220575540000e-1 -9.996438877130000e-2
-9.938571905440000e-2 -9.878777366660001e-2 -9.817245406129999e-2 -9.754184900300000e-2
-9.689824101239999e-2 -9.624411238030001e-2 -9.558215387050000e-2 -9.491527179129999e-2
-9.424659199210000e-2 -9.357947056500000e-2 -9.291749402500001e-2 -9.226448902620000e-2
-9.162452368369999e-2 -9.100191308890000e-2 -9.040122130340000e-2 -8.982726247050000e-2
-8.928510299570000e-2 -8.878006002190000e-2 -8.831769936920001e-2 -8.790383407269999e-2
-8.754451535390000e-2 -8.724603050230000e-2 -8.701489090120001e-2 -8.685782269359999e-2
-8.678175291510000e-2 -8.679379450050000e-2 -8.690122774550002e-2 -8.711148007089999e-2
-8.743210154010001e-2 -8.787073889230001e-2 -8.843510374980001e-2 -8.913294135200001e-2
-8.997199284470002e-2 -9.095995328210000e-2 -9.210443006240000e-2 -9.341289194140000e-2
-9.489261964880001e-2 -9.655064865500000e-2 -9.839370948210000e-2 -1.004281657830000e-1
-1.026599442720000e-1 -1.050944673180000e-1 -1.077365768430000e-1 -1.105904566150000e-1
-1.136595546330000e-1 -1.169464975650000e-1 -1.204530096550000e-1 -1.241798247770000e-1
-1.281266015440000e-1 -1.322918362050000e-1 -1.366727788090000e-1 -1.412653488350000e-1
-1.460640560540000e-1 -1.510619236430000e-1 -1.562504195490000e-1 -1.616193909560000e-1
-1.671570120810000e-1 -1.728497383850000e-1 -1.786822741190000e-1 -1.846375545230000e-1
-1.906967415810000e-1 -1.968392408430000e-1 -2.030427349230000e-1 -2.092832405090000e-1
-2.155351889150000e-1 -2.217715327140000e-1 -2.279638794380000e-1 -2.340826564760000e-1
-2.400973048240000e-1 -2.459765076780000e-1 -2.516884506950000e-1 -2.572011179000000e-1
-2.624826210040000e-1 -2.675015627840000e-1 -2.722274349910000e-1 -2.766310462220000e-1
-2.806849798270000e-1 -2.843640769150000e-1 -2.876459434310000e-1 -2.905114709200000e-1
-2.929453692630000e-1 -2.949367022500000e-1 -2.964794182890000e-1 -2.975728636580000e-1
-2.982222723830000e-1 -2.984392160230000e-1 -2.982420029550000e-1 -2.976560129290000e-1
-2.967139504900000e-1 -2.954560041450000e-1 -2.939298938970000e-1 -2.921907922130000e-1
-2.903011028960000e-1 -2.883300843520000e-1 -2.863533022900000e-1 -2.844519022220000e-1
-2.827116936380000e-1 -2.812220384110000e-1 -2.800745443860000e-1 -2.793615648230000e-1
-2.791745154460000e-1 -2.796020208840000e-1 -2.807279140670000e-1 -2.826291156080000e-1
-2.853734324970000e-1 -2.890173168030000e-1 -2.936036418120000e-1 -2.991595521180000e-1
-3.056944582710000e-1 -3.131982498940000e-1 -3.216398066980000e-1 -3.309658906670000e-1
-3.411005048050000e-1 -3.519448002390000e-1 -3.633776099330000e-1 -3.752566801900000e-1
-3.874206557010000e-1 -3.996918593170000e-1 -4.118798855960000e-1 -4.237859996100000e-1
-4.352083037540000e-1 -4.459475990370000e-1 -4.558138284580000e-1 -4.646329516780000e-1
-4.722540547180000e-1 -4.785564607710000e-1 -4.834565678070001e-1 -4.869141058729999e-1
-4.889374813060000e-1 -4.895878625820000e-1 -4.889816585210000e-1 -4.872910604360000e-1
-4.847423496400000e-1 -4.816117356070000e-1 -4.782185655810000e-1 -4.749158513910000e-1
-4.720781885350000e-1 -4.700872840230000e-1 -4.693154750150000e-1 -4.701077897290000e-1
-4.727632731440000e-1 -4.775164610460000e-1 -4.845200252750000e-1 -4.938297131530000e-1
-5.053927568010001e-1 -5.190409109810000e-1 -5.344891872180000e-1 -5.513411659870000e-1
-5.691014944600000e-1 -5.871958014290000e-1 -6.049978006120000e-1 -6.218628204970001e-1
-6.371664162040000e-1 -6.503461307579999e-1 -6.609439148760000e-1 -6.686462471530001e-1
-6.733186753990000e-1 -6.750313849339999e-1 -6.740725472040000e-1 -6.709466559879999e-1
-6.663558405800000e-1 -6.611632684290000e-1 -6.563391569040000e-1 -6.528915641560000e-1
-6.517858799050000e-1 -6.538586593180000e-1 -6.597329359280000e-1 -6.697432151400000e-1
-6.838787707700000e-1 -7.017534642160000e-1 -7.226089283379999e-1 -7.453555626590001e-1
-7.686524122000000e-1 -7.910228497040000e-1 -8.109983686430001e-1 -8.272782098510000e-1
-8.388885670330000e-1 -8.453224051550000e-1 -8.466401215119999e-1 -8.435129192080000e-1
-8.371951632700000e-1 -8.294191459720000e-1 -8.222151801479999e-1 -8.176708806160001e-1
-8.176545582730000e-1 -8.235371495290000e-1 -8.359531860130000e-1 -8.546422222409999e-1
-8.784065755900000e-1 -9.052086713710001e-1 -9.324123285719999e-1 -9.571488696430000e-1
-9.767642169429999e-1 -9.892814162710000e-1 -9.937990852140000e-1 -9.907445485509999e-1
-9.819139998950000e-1 -9.702616179940000e-1 -9.594426863990000e-1 -9.531663683320000e-1
-9.544626594480000e-1 -9.650040112190000e-1 -9.846341691340001e-1 -1.011236734420000e0
-1.041021319240000e0 -1.069221303850000e0 -1.091098217390000e0 -1.103055218990000e0
-1.103601394000000e0 -1.093902808760000e0 -1.077719443310000e0 -1.060657331290000e0
-1.048840790820000e0 -1.047289985460000e0 -1.058421952640000e0 -1.081127772660000e0
-1.110781886590000e0 -1.140312788780000e0 -1.162151621570000e0 -1.170560924710000e0
-1.163636176190000e0 -1.144264069990000e0 -1.119561929120000e0 -1.098780838830000e0
-1.090209560920000e0 -1.098077779440000e0 -1.120625308740000e0 -1.150245920870000e0
-1.175940145620000e0 -1.187408712810000e0 -1.179321215360000e0 -1.153974525540000e0
-1.120961880440000e0 -1.093582652930000e0 -1.083172642200000e0 -1.093707504730000e0
-1.119292020040000e0 -1.146162258570000e0 -1.158825098780000e0 -1.147764653380000e0
-1.114893077900000e0 -1.073509788130000e0 -1.042034890110000e0 -1.034184243840000e0
-1.050753034120000e0 -1.078069850440000e0 -1.094966628720000e0 -1.085124666120000e0
-1.047727957720000e0 -9.993030557840001e-1 -9.643307384560000e-1 -9.594689864010000e-1
-9.814635276659999e-1 -1.007822718550000e0 -1.011484783690000e0 -9.804560494840000e-1
-9.281514036179999e-1 -8.851478513149999e-1 -8.764400096070000e-1 -9.008000315269999e-1
-9.297248943620000e-1 -9.294574790710000e-1 -8.899102712070000e-1 -8.355844247169999e-1
-8.061570243740000e-1 -8.209048718729999e-1 -8.588428581120001e-1 -8.760176822160000e-1
-8.474779389860000e-1 -7.942113942500000e-1 -7.649738632140000e-1 -7.866618704760000e-1
-8.334437779429999e-1 -8.515051197570001e-1 -8.181640769360000e-1 -7.706598329030000e-1
-7.664671956650000e-1 -8.150252153720000e-1 -8.624532062049999e-1 -8.552516115930000e-1
-8.097220064560000e-1 -7.954424743790000e-1 -8.448493756290000e-1 -9.055994584390000e-1
-9.084180130160000e-1 -8.658394261900000e-1 -8.593325827459999e-1 -9.211754066550000e-1
-9.811679143160001e-1 -9.696774832500001e-1 -9.291283784520001e-1 -9.517322481019999e-1
-1.028259333200000e0 -1.056729079570000e0 -1.013591318710000e0 -1.000172764170000e0
-1.066347738760000e0 -1.114510039990000e0 -1.074113072570000e0 -1.038529703920000e0
-1.091002715200000e0 -1.136822311290000e0 -1.085602704170000e0 -1.038883150770000e0
-1.085052902550000e0 -1.107152285440000e0 -1.028661888640000e0 -9.867130695269999e-1
-1.029749842620000e0 -1.000317622240000e0 -8.974451629670000e-1 -8.862911849320000e-1
-9.007659087780000e-1 -7.978284828030000e-1 -7.169151032649999e-1 -7.318907202640000e-1
-6.546907803090000e-1 -5.269164258330000e-1 -5.157055076070000e-1 -4.582183594770000e-1
-3.067276488520000e-1 -2.683011062840000e-1 -2.158585694170000e-1 -5.153290053810000e-2
-4.237840732740001e-3 4.223385697660001e-4 -3.933402289990000e-5 6.776115864770000e-6
2.527046956120000e-6 3.228858788770000e-6 3.649959051440000e-6 3.684528877340000e-6
3.928955447400000e-6 4.134874494560000e-6 4.327227674470000e-6 0.000000000000000e0
0.000000000000000e0 0.000000000000000e0 0.000000000000000e0 0.000000000000000e0
0.000000000000000e0 0.000000000000000e0 0.000000000000000e0 0.000000000000000e0
0.000000000000000e0 0.000000000000000e0 0.000000000000000e0 0.000000000000000e0
0.000000000000000e0 0.000000000000000e0 0.000000000000000e0 0.000000000000000e0
0.000000000000000e0 0.000000000000000e0 0.000000000000000e0 0.000000000000000e0
0.000000000000000e0 0.000000000000000e0 0.000000000000000e0 0.000000000000000e0
0.000000000000000e0 0.000000000000000e0 0.000000000000000e0 0.000000000000000e0
0.000000000000000e0 0.000000000000000e0 0.000000000000000e0 0.000000000000000e0
0.000000000000000e0 0.000000000000000e0 0.000000000000000e0 0.000000000000000e0
0.000000000000000e0 0.000000000000000e0 0.000000000000000e0 0.000000000000000e0
0.000000000000000e0 0.000000000000000e0 0.000000000000000e0 0.000000000000000e0
0.000000000000000e0 0.000000000000000e0 0.000000000000000e0 0.000000000000000e0
0.000000000000000e0 0.000000000000000e0 0.000000000000000e0 0.000000000000000e0
0.000000000000000e0 0.000000000000000e0 0.000000000000000e0 0.000000000000000e0
0.000000000000000e0 0.000000000000000e0 0.000000000000000e0 0.000000000000000e0
0.000000000000000e0 0.000000000000000e0 0.000000000000000e0 0.000000000000000e0
0.000000000000000e0 0.000000000000000e0 0.000000000000000e0 0.000000000000000e0
0.000000000000000e0 0.000000000000000e0 0.000000000000000e0 0.000000000000000e0
0.000000000000000e0 0.000000000000000e0 0.000000000000000e0 0.000000000000000e0
0.000000000000000e0 0.000000000000000e0 0.000000000000000e0 0.000000000000000e0
0.000000000000000e0 0.000000000000000e0 0.000000000000000e0 0.000000000000000e0
0.000000000000000e0 0.000000000000000e0 0.000000000000000e0 0.000000000000000e0
0.000000000000000e0 0.000000000000000e0 0.000000000000000e0 0.000000000000000e0
0.000000000000000e0 0.000000000000000e0 0.000000000000000e0 0.000000000000000e0
0.000000000000000e0 0.000000000000000e0 0.000000000000000e0 0.000000000000000e0
0.000000000000000e0 0.000000000000000e0 0.000000000000000e0 0.000000000000000e0
0.000000000000000e0 0.000000000000000e0 0.000000000000000e0 0.000000000000000e0
0.000000000000000e0 0.000000000000000e0 0.000000000000000e0 0.000000000000000e0
0.000000000000000e0 0.000000000000000e0 0.000000000000000e0 0.000000000000000e0
0.000000000000000e0 0.000000000000000e0 0.000000000000000e0 0.000000000000000e0
0.000000000000000e0 0.000000000000000e0 0.000000000000000e0 0.000000000000000e0
0.000000000000000e0 0.000000000000000e0 0.000000000000000e0 0.000000000000000e0
0.000000000000000e0 0.000000000000000e0 0.000000000000000e0 0.000000000000000e0
0.000000000000000e0 0.000000000000000e0 0.000000000000000e0 0.000000000000000e0
0.000000000000000e0 0.000000000000000e0 0.000000000000000e0 0.000000000000000e0
0.000000000000000e0 0.000000000000000e0 0.000000000000000e0 0.000000000000000e0
0.000000000000000e0 0.000000000000000e0 0.000000000000000e0 0.000000000000000e0
0.000000000000000e0 0.000000000000000e0 0.000000000000000e0 0.000000000000000e0
0.000000000000000e0 0.000000000000000e0 0.000000000000000e0 0.000000000000000e0
0.000000000000000e0 0.000000000000000e0 0.000000000000000e0 0.000000000000000e0
0.000000000000000e0 0.000000000000000e0 0.000000000000000e0 0.000000000000000e0
0.000000000000000e0 0.000000000000000e0 0.000000000000000e0 0.000000000000000e0
0.000000000000000e0 0.000000000000000e0 0.000000000000000e0 0.000000000000000e0
0.000000000000000e0 0.000000000000000e0 0.000000000000000e0 0.000000000000000e0
0.000000000000000e0 0.000000000000000e0 0.000000000000000e0 0.000000000000000e0
0.000000000000000e0 0.000000000000000e0 0.000000000000000e0 0.000000000000000e0
0.000000000000000e0 0.000000000000000e0 0.000000000000000e0 0.000000000000000e0
0.000000000000000e0 0.000000000000000e0 0.000000000000000e0 0.000000000000000e0
0.000000000000000e0 0.000000000000000e0 0.000000000000000e0 0.000000000000000e0
0.000000000000000e0 0.000000000000000e0 0.000000000000000e0 0.000000000000000e0
0.000000000000000e0 0.000000000000000e0 0.000000000000000e0 0.000000000000000e0
0.000000000000000e0 0.000000000000000e0 0.000000000000000e0 0.000000000000000e0
0.000000000000000e0 0.000000000000000e0 0.000000000000000e0 0.000000000000000e0
0.000000000000000e0 0.000000000000000e0 0.000000000000000e0 0.000000000000000e0
0.000000000000000e0 0.000000000000000e0 0.000000000000000e0 0.000000000000000e0
0.000000000000000e0 0.000000000000000e0 0.000000000000000e0 0.000000000000000e0
0.000000000000000e0 0.000000000000000e0 0.000000000000000e0 0.000000000000000e0
0.000000000000000e0 0.000000000000000e0 0.000000000000000e0 0.000000000000000e0
0.000000000000000e0 0.000000000000000e0 0.000000000000000e0 0.000000000000000e0
0.000000000000000e0 0.000000000000000e0 0.000000000000000e0 0.000000000000000e0
0.000000000000000e0 0.000000000000000e0 0.000000000000000e0 0.000000000000000e0
0.000000000000000e0 0.000000000000000e0 0.000000000000000e0 0.000000000000000e0
0.000000000000000e0 0.000000000000000e0 0.000000000000000e0 0.000000000000000e0
0.000000000000000e0 0.000000000000000e0 0.000000000000000e0 0.000000000000000e0
0.000000000000000e0 0.000000000000000e0 0.000000000000000e0 0.000000000000000e0
0.000000000000000e0 0.000000000000000e0 0.000000000000000e0 0.000000000000000e0
0.000000000000000e0 0.000000000000000e0 0.000000000000000e0 0.000000000000000e0
0.000000000000000e0 0.000000000000000e0 0.000000000000000e0 0.000000000000000e0
0.000000000000000e0 0.000000000000000e0 0.000000000000000e0 0.000000000000000e0
0.000000000000000e0 0.000000000000000e0 0.000000000000000e0 0.000000000000000e0
0.000000000000000e0 0.000000000000000e0 0.000000000000000e0 0.000000000000000e0
0.000000000000000e0 0.000000000000000e0 0.000000000000000e0 0.000000000000000e0
0.000000000000000e0 0.000000000000000e0 0.000000000000000e0 0.000000000000000e0
0.000000000000000e0 0.000000000000000e0 0.000000000000000e0 0.000000000000000e0
0.000000000000000e0 0.000000000000000e0 0.000000000000000e0 0.000000000000000e0
0.000000000000000e0 0.000000000000000e0 0.000000000000000e0 0.000000000000000e0
0.000000000000000e0 0.000000000000000e0 0.000000000000000e0 0.000000000000000e0
0.000000000000000e0 0.000000000000000e0 0.000000000000000e0 0.000000000000000e0
0.000000000000000e0 0.000000000000000e0 0.000000000000000e0 0.000000000000000e0
0.000000000000000e0 0.000000000000000e0 0.000000000000000e0 0.000000000000000e0
0.000000000000000e0
</PP_BETA.1>
<PP_BETA.2 index="2" label="2S" angular_momentum="0" cutoff_radius_index="751" cutoff_radius="1.400000000000e0" ultrasoft_cutoff_radius="1.600000000000e0">
-1.887823164100000e-3 -1.911569057120000e-3 -1.935613636730000e-3 -1.959960659960000e-3
-1.984377357830000e-3 -2.009312306720000e-3 -2.034770409480000e-3 -2.060199250340000e-3
-2.086254092300000e-3 -2.112420464520000e-3 -2.138906338720000e-3 -2.165937384979999e-3
-2.193077049000000e-3 -2.220652589430000e-3 -2.248548243600000e-3 -2.276842958480000e-3
-2.305573870100000e-3 -2.334473799490000e-3 -2.363892047760000e-3 -2.393598865690000e-3
-2.423702279070000e-3 -2.454109204010000e-3 -2.484918609910000e-3 -2.516199328740000e-3
-2.547946990870000e-3 -2.579921844960000e-3 -2.612351525970000e-3 -2.645230724640000e-3
-2.678476022850000e-3 -2.712184966580000e-3 -2.746267001750000e-3 -2.780797732550000e-3
-2.815840568290000e-3 -2.851150811200000e-3 -2.886972944810000e-3 -2.923324326890000e-3
-2.960064816310000e-3 -2.997345463270000e-3 -3.035060763610000e-3 -3.073098701440000e-3
-3.111741004250001e-3 -3.150907257909999e-3 -3.190503881130000e-3 -3.230590310660000e-3
-3.271229176900000e-3 -3.312428579400000e-3 -3.353977713110000e-3 -3.396175862480000e-3
-3.438886016670000e-3 -3.482064179750000e-3 -3.525898456400000e-3 -3.570218276470000e-3
-3.615026942920000e-3 -3.660527774959999e-3 -3.706474856760000e-3 -3.753152666190001e-3
-3.800351916690000e-3 -3.848026035730001e-3 -3.896448111570000e-3 -3.945388118099999e-3
-3.994938395760000e-3 -4.045186476910001e-3 -4.096063189850000e-3 -4.147551035819999e-3
-4.199657618180000e-3 -4.252417316980000e-3 -4.305899680460000e-3 -4.360023187620000e-3
-4.414779985879999e-3 -4.470298802950000e-3 -4.526383028800000e-3 -4.583287877859999e-3
-4.640908321990000e-3 -4.699160333220000e-3 -4.758287955980000e-3 -4.818091109700000e-3
-4.878508093460000e-3 -4.939932806360000e-3 -5.001893428590000e-3 -5.064801492580000e-3
-5.128388549309999e-3 -5.192860962980000e-3 -5.258096958680001e-3 -5.324103053010000e-3
-5.390991233630000e-3 -5.458707141690001e-3 -5.527261688800000e-3 -5.596681140350000e-3
-5.667004798069999e-3 -5.738158691690000e-3 -5.810175011000000e-3 -5.883221933189999e-3
-5.957031752210000e-3 -6.031862296180000e-3 -6.107560210300001e-3 -6.184269844890000e-3
-6.261907907340001e-3 -6.340550649680000e-3 -6.420121886440000e-3 -6.500676185890000e-3
-6.582333550710000e-3 -6.664906350510000e-3 -6.748601984470000e-3 -6.833309387210001e-3
-6.919051582530001e-3 -7.005856756070000e-3 -7.093786698080001e-3 -7.182761401830000e-3
-7.272869351680001e-3 -7.364145859650001e-3 -7.456563673570001e-3 -7.550062334750001e-3
-7.644742966470000e-3 -7.740657777520000e-3 -7.837734340630000e-3 -7.936033353329998e-3
-8.035555295909999e-3 -8.136295137040001e-3 -8.238327200350001e-3 -8.341577120339998e-3
-8.446171602980000e-3 -8.552063159210000e-3 -8.659210589550000e-3 -8.767733990640000e-3
-8.877596731579999e-3 -8.988817541000000e-3 -9.101460178990001e-3 -9.215484456770000e-3
-9.330912505450000e-3 -9.447755008680002e-3 -9.566108299550001e-3 -9.685884378609998e-3
-9.807159117699999e-3 -9.929949847540001e-3 -1.005422860190000e-2 -1.018006860430000e-2
-1.030747993830000e-2 -1.043643066530000e-2 -1.056701723630000e-2 -1.069922895440000e-2
-1.083304223800000e-2 -1.096851451230000e-2 -1.110565990000000e-2 -1.124448966310000e-2
-1.138507120810000e-2 -1.152736995300000e-2 -1.167140289030000e-2 -1.181723604870000e-2
-1.196485939360000e-2 -1.211431313310000e-2 -1.226555963320000e-2 -1.241871309640000e-2
-1.257375487520000e-2 -1.273068873340000e-2 -1.288951480520000e-2 -1.305034288410000e-2
-1.321309148020000e-2 -1.337788383970000e-2 -1.354466540910000e-2 -1.371350150220000e-2
-1.388438242320000e-2 -1.405736062020000e-2 -1.423246592340000e-2 -1.440970199950000e-2
-1.458909276840000e-2 -1.477068162090000e-2 -1.495444795330000e-2 -1.514047567550000e-2
-1.532877226960000e-2 -1.551933316600000e-2 -1.571221834830000e-2 -1.590744676510000e-2
-1.610501453110000e-2 -1.630500322370000e-2 -1.650737594260000e-2 -1.671220963120000e-2
-1.691950839720000e-2 -1.712930393830000e-2 -1.734162017450000e-2 -1.755650396880000e-2
-1.777395546900000e-2 -1.799400308980000e-2 -1.821670086270000e-2 -1.844205086100000e-2
-1.867009064360000e-2 -1.890085134490000e-2 -1.913434655320000e-2 -1.937065192650000e-2
-1.960972663430000e-2 -1.985164572110000e-2 -2.009643471740000e-2 -2.034411527480000e-2
-2.059469055720000e-2 -2.084825246100000e-2 -2.110476156740000e-2 -2.136428897690000e-2
-2.162686586220000e-2 -2.189251337940000e-2 -2.216125048880000e-2 -2.243311122660000e-2
-2.270812378320000e-2 -2.298634236620000e-2 -2.326777050300000e-2 -2.355243400580000e-2
-2.384037383990000e-2 -2.413163039770000e-2 -2.442622160720000e-2 -2.472416770880000e-2
-2.502552773250000e-2 -2.533027596320000e-2 -2.563850867080000e-2 -2.595020179040000e-2
-2.626541895840000e-2 -2.658416973170000e-2 -2.690648204210000e-2 -2.723239454440000e-2
-2.756192074519999e-2 -2.789510081770000e-2 -2.823195931310000e-2 -2.857253778920000e-2
-2.891682830500000e-2 -2.926487488860000e-2 -2.961671149420000e-2 -2.997234726990000e-2
-3.033182144590000e-2 -3.069513405280000e-2 -3.106234172090000e-2 -3.143344272610000e-2
-3.180846660310000e-2 -3.218742858560000e-2 -3.257036690580000e-2 -3.295728291330000e-2
-3.334819918030000e-2 -3.374313673380000e-2 -3.414210916410000e-2 -3.454513470279999e-2
-3.495222293369999e-2 -3.536339271630000e-2 -3.577865378010000e-2 -3.619801279530000e-2
-3.662148459210000e-2 -3.704908026800000e-2 -3.748078941940000e-2 -3.791664340360001e-2
-3.835661648190000e-2 -3.880072952630000e-2 -3.924897663330000e-2 -3.970135005460000e-2
-4.015785523510001e-2 -4.061847108729999e-2 -4.108319834200000e-2 -4.155201996500000e-2
-4.202492532840000e-2 -4.250190036820000e-2 -4.298292546650000e-2 -4.346796403820000e-2
-4.395700377700001e-2 -4.445001708550000e-2 -4.494697751780000e-2 -4.544782429970001e-2
-4.595254468249999e-2 -4.646108340650001e-2 -4.697339169070000e-2 -4.748943681100000e-2
-4.800914362990000e-2 -4.853246272189999e-2 -4.905932066419999e-2 -4.958966775790000e-2
-5.012340384640001e-2 -5.066047902200000e-2 -5.120078671429999e-2 -5.174424722490000e-2
-5.229076260999999e-2 -5.284022924480000e-2 -5.339253737810000e-2 -5.394757704730000e-2
-5.450521734430001e-2 -5.506534167160000e-2 -5.562780158370000e-2 -5.619245995430000e-2
-5.675915742350000e-2 -5.732773040890001e-2 -5.789802600310000e-2 -5.846984372810001e-2
-5.904300918920001e-2 -5.961732256780000e-2 -6.019256766230000e-2 -6.076853293409999e-2
-6.134498680989999e-2 -6.192168194630000e-2 -6.249836565590000e-2 -6.307478338920001e-2
-6.365064642239999e-2 -6.422566688639999e-2 -6.479953670040000e-2 -6.537193645300000e-2
-6.594253349350000e-2 -6.651098410119999e-2 -6.707691189350000e-2 -6.763994143609999e-2
-6.819967706129999e-2 -6.875569656909999e-2 -6.930756656690001e-2 -6.985483984380001e-2
-7.039703375189999e-2 -7.093366780620000e-2 -7.146421669870000e-2 -7.198815891820000e-2
-7.250492098380001e-2 -7.301393516720001e-2 -7.351459442240000e-2 -7.400627227500001e-2
-7.448830755510000e-2 -7.496002776669998e-2 -7.542072148150001e-2 -7.586965554110002e-2
-7.630606672710000e-2 -7.672916349859999e-2 -7.713811774160000e-2 -7.753207227940000e-2
-7.791014599899999e-2 -7.827141145820001e-2 -7.861491290920000e-2 -7.893966429979999e-2
-7.924462743479999e-2 -7.952874628270000e-2 -7.979091203690000e-2 -8.002997658010001e-2
-8.024475994610000e-2 -8.043402985589999e-2 -8.059651941869999e-2 -8.073090977590001e-2
-8.083584082240002e-2 -8.090990770810000e-2 -8.095165374120000e-2 -8.095957175479999e-2
-8.093211044900000e-2 -8.086766278139999e-2 -8.076456929740001e-2 -8.062111403290000e-2
-8.043554006240001e-2 -8.020600810610000e-2 -7.993064847480000e-2 -7.960751839620000e-2
-7.923461484850001e-2 -7.880988164120000e-2 -7.833119356039999e-2 -7.779636687260000e-2
-7.720315246280000e-2 -7.654923978800000e-2 -7.583224430460000e-2 -7.504972194160000e-2
-7.419915981030000e-2 -7.327797376820000e-2 -7.228352114780000e-2 -7.121307221710000e-2
-7.006384327200000e-2 -6.883297433259999e-2 -6.751753212400001e-2 -6.611452259770000e-2
-6.462086952399999e-2 -6.303343317180000e-2 -6.134900280649999e-2 -5.956429797190000e-2
-5.767596939980000e-2 -5.568060081480000e-2 -5.357470435330001e-2 -5.135473680270000e-2
-4.901708047190001e-2 -4.655806241530000e-2 -4.397394791840000e-2 -4.126094377430000e-2
-3.841520472130000e-2 -3.543283087580000e-2 -3.230987672540000e-2 -2.904235452650000e-2
-2.562623384570000e-2 -2.205744894340000e-2 -1.833190603670000e-2 -1.444548651760000e-2
-1.039405538260000e-2 -6.173465109959999e-3 -1.779565356060000e-3 2.791791297730000e-3
7.544740532700001e-3 1.248338880590000e-2 1.761181940000000e-2 2.293406913430000e-2
2.845412076380000e-2 3.417588970270000e-2 4.010321825570000e-2 4.623984515880000e-2
5.258941254930001e-2 5.915543215140000e-2 6.594127830090001e-2 7.295016992850000e-2
8.018514591730000e-2 8.764905517050002e-2 9.534452903900000e-2 1.032739614950000e-1
1.114394865830000e-1 1.198429600290000e-1 1.284859235900000e-1 1.373695917290000e-1
1.464948162170000e-1 1.558620613700000e-1 1.654713787940000e-1 1.753223699480000e-1
1.854141607480000e-1 1.957453727130000e-1 2.063140815990000e-1 2.171177949070000e-1
2.281534072420000e-1 2.394171742820000e-1 2.509046744580000e-1 2.626107731140000e-1
2.745295852800000e-1 2.866544456460000e-1 2.989778660200000e-1 3.114915020840000e-1
3.241861232110000e-1 3.370515683800000e-1 3.500767236300000e-1 3.632494827910000e-1
3.765567177790000e-1 3.899842528590000e-1 4.035168375550001e-1 4.171381220770000e-1
4.308306352860000e-1 4.445757729470000e-1 4.583537818910000e-1 4.721437481930000e-1
4.859236016360001e-1 4.996701113559999e-1 5.133589038739999e-1 5.269644662100000e-1
5.404601812480000e-1 5.538183570000000e-1 5.670102624030000e-1 5.800061869089999e-1
5.927754939620000e-1 6.052867013030000e-1 6.175075613610001e-1 6.294051611070000e-1
6.409460357540000e-1 6.520962892040000e-1 6.628217450600000e-1 6.730880934300000e-1
6.828610730899999e-1 6.921066549250000e-1 7.007912582499999e-1 7.088819680200000e-1
7.163467860570000e-1 7.231548880860000e-1 7.292769084480000e-1 7.346852340830000e-1
7.393543238069999e-1 7.432610378620001e-1 7.463849890160001e-1 7.487089027100000e-1
7.502189952210000e-1 7.509053594070000e-1 7.507623612830000e-1 7.497890402790000e-1
7.479895185040000e-1 7.453734000700000e-1 7.419561748480000e-1 7.377596083109999e-1
7.328121158630000e-1 7.271491208930000e-1 7.208133855400000e-1 7.138553063180000e-1
7.063331713849999e-1 6.983133690240000e-1 6.898705424660000e-1 6.810876731820001e-1
6.720560986480000e-1 6.628754395550000e-1 6.536534375380000e-1 6.445056910320000e-1
6.355552734410001e-1 6.269322368680000e-1 6.187729820580000e-1 6.112194858600000e-1
6.044183889100000e-1 5.985199286100000e-1 5.936767074680001e-1 5.900423155300000e-1
5.877697759520000e-1 5.870098394060000e-1 5.879091220679999e-1 5.906080911710000e-1
5.952389167440000e-1 6.019232024470000e-1 6.107696094450001e-1 6.218714058990001e-1
6.353039684520000e-1 6.511222661590001e-1 6.693583728519999e-1 6.900190502050000e-1
7.130834541290000e-1 7.385010194110000e-1 7.661895852480000e-1 7.960338251140000e-1
8.278840565820001e-1 8.615554936580001e-1 8.968280230790000e-1 9.334465764699999e-1
9.711221658330000e-1 1.009533654990000e0 1.048330328400000e0 1.087135303100000e0
1.125549833860000e0 1.163158527330000e0 1.199535480170000e0 1.234251317930000e0
1.266881101310000e0 1.297013026950000e0 1.324257820140000e0 1.348258689280000e0
1.368701664420000e0 1.385326114790000e0 1.397935194310000e0 1.406405931820000e0
1.410698646730000e0 1.410865336620000e0 1.407056668630000e0 1.399527176900000e0
1.388638274130000e0 1.374858685540000e0 1.358761938930000e0 1.341020583240000e0
1.322396863580000e0 1.303729667920000e0 1.285917652510000e0 1.269898583470000e0
1.256625076210000e0 1.247037071110000e0 1.242031575590000e0 1.242430383940000e0
1.248946690560000e0 1.262151697250000e0 1.282442506860000e0 1.310012737390000e0
1.344827424060000e0 1.386603832430000e0 1.434799813100000e0 1.488611254600000e0
1.546980021120000e0 1.608613487620000e0 1.672016417790000e0 1.735535432720000e0
1.797415729350000e0 1.855869023000000e0 1.909150922210000e0 1.955645149300000e0
1.993951213350000e0 2.022971382310000e0 2.041992160700000e0 2.050754989130000e0
2.049510656770000e0 2.039051974680000e0 2.020719709590000e0 1.996377624880000e0
1.968353786170000e0 1.939347039650000e0 1.912299735590000e0 1.890240281470000e0
1.876101827600000e0 1.872526166750000e0 1.881664540910000e0 1.904989243530000e0
1.943131415500000e0 1.995760971070000e0 2.061523895960000e0 2.138050036780000e0
2.222040807300000e0 2.309441002020000e0 2.395692250330000e0 2.476057946060000e0
2.546001225240000e0 2.601589508640000e0 2.639892093650000e0 2.659332295240000e0
2.659953643590000e0 2.643561550850000e0 2.613708317300000e0 2.575500603080000e0
2.535224322870000e0 2.499801437820000e0 2.476114751340000e0 2.470258361960000e0
2.486790091110000e0 2.528074936480000e0 2.593812377770000e0 2.680832662010000e0
2.783226535070000e0 2.892839279820000e0 3.000115360410000e0 3.095228593030000e0
3.169380815910000e0 3.216107433040000e0 3.232399651240000e0 3.219448940540000e0
3.182845371950000e0 3.132120467030000e0 3.079614201220000e0 3.038755919800000e0
3.021964996940000e0 3.038479056360000e0 3.092483043870000e0 3.181920583610000e0
3.298305307820000e0 3.427710914960000e0 3.552916255450000e0 3.656444138870000e0
3.724003101030000e0 3.747672479390000e0 3.728114552150000e0 3.675191580100000e0
3.606622126640000e0 3.544704789090000e0 3.511602246570000e0 3.524113053770000e0
3.589143905280000e0 3.701122195840000e0 3.842292068620000e0 3.986225771340000e0
4.104057864660000e0 4.172103000770000e0 4.178893997810000e0 4.129514777980000e0
4.045556611490000e0 3.960090911640000e0 3.908520040800000e0 3.917643199610000e0
3.996258675350000e0 4.130664537580000e0 4.287290870610000e0 4.422545313380000e0
4.497350252360000e0 4.491683184680000e0 4.413642583550000e0 4.298772855050000e0
4.198548037640000e0 4.161152247680000e0 4.211437455280000e0 4.338441885340000e0
4.496944241750000e0 4.624321415830000e0 4.667170010200000e0 4.606645445800000e0
4.470251289350000e0 4.322439251600000e0 4.235783184860000e0 4.254796049410000e0
4.370337720770000e0 4.519807481710000e0 4.616568458580000e0 4.596079688340000e0
4.454475835110000e0 4.255826986730000e0 4.099414056470000e0 4.061762012730000e0
4.146620772830000e0 4.276327987160000e0 4.335891483640000e0 4.247068514240000e0
4.025130818390000e0 3.775697428100000e0 3.625869274220000e0 3.632023525480000e0
3.731263656030000e0 3.780140398780000e0 3.661445262380000e0 3.381123063300000e0
3.073215985270000e0 2.896469354550000e0 2.898527456210000e0 2.964666193940000e0
2.908942192780000e0 2.641233902470000e0 2.260497888420000e0 1.973569664050000e0
1.898101467570000e0 1.936083109010000e0 1.859159479370000e0 1.541643730330000e0
1.105453518180000e0 8.039218510640001e-1 7.442295817470001e-1 7.522319776730000e-1
5.587887914200000e-1 1.203133067200000e-1 -3.094705702940000e-1 -4.786287360830000e-1
-4.629710242610000e-1 -5.884710046300000e-1 -1.006734463830000e0 -1.471334715860000e0
-1.656389122230000e0 -1.620184980190000e0 -1.744740235020000e0 -2.181181099140000e0
-2.599555530430000e0 -2.672671932800000e0 -2.599585798680000e0 -2.813236490000000e0
-3.270393241530000e0 -3.492467802430000e0 -3.369265512570000e0 -3.377067953260000e0
-3.750714937790000e0 -4.032719215520000e0 -3.892772367610000e0 -3.770324001380000e0
-4.057342526710000e0 -4.310303917540000e0 -4.105985839710000e0 -3.922247879100000e0
-4.175067135700000e0 -4.316012302730000e0 -3.986177796580000e0 -3.829314922650000e0
-4.072095244960000e0 -3.974025945010000e0 -3.530505743980000e0 -3.517339784990000e0
-3.624563468620000e0 -3.180912049170000e0 -2.841438339360000e0 -2.953322473680000e0
-2.633910325910000e0 -2.078893444540000e0 -2.073390253970000e0 -1.853171176680000e0
-1.194480393310000e0 -1.069895910480000e0 -8.829447382730001e-1 -1.753727483070000e-1
-1.276022348420000e-2 1.341502002460000e-3 -5.740097954430000e-5 8.037378189340000e-5
6.568296912860000e-5 6.606590998320000e-5 6.433112434459999e-5 6.365510617069998e-5
6.235830031280001e-5 6.105939174750000e-5 5.970443566530001e-5 0.000000000000000e0
0.000000000000000e0 0.000000000000000e0 0.000000000000000e0 0.000000000000000e0
0.000000000000000e0 0.000000000000000e0 0.000000000000000e0 0.000000000000000e0
0.000000000000000e0 0.000000000000000e0 0.000000000000000e0 0.000000000000000e0
0.000000000000000e0 0.000000000000000e0 0.000000000000000e0 0.000000000000000e0
0.000000000000000e0 0.000000000000000e0 0.000000000000000e0 0.000000000000000e0
0.000000000000000e0 0.000000000000000e0 0.000000000000000e0 0.000000000000000e0
0.000000000000000e0 0.000000000000000e0 0.000000000000000e0 0.000000000000000e0
0.000000000000000e0 0.000000000000000e0 0.000000000000000e0 0.000000000000000e0
0.000000000000000e0 0.000000000000000e0 0.000000000000000e0 0.000000000000000e0
0.000000000000000e0 0.000000000000000e0 0.000000000000000e0 0.000000000000000e0
0.000000000000000e0 0.000000000000000e0 0.000000000000000e0 0.000000000000000e0
0.000000000000000e0 0.000000000000000e0 0.000000000000000e0 0.000000000000000e0
0.000000000000000e0 0.000000000000000e0 0.000000000000000e0 0.000000000000000e0
0.000000000000000e0 0.000000000000000e0 0.000000000000000e0 0.000000000000000e0
0.000000000000000e0 0.000000000000000e0 0.000000000000000e0 0.000000000000000e0
0.000000000000000e0 0.000000000000000e0 0.000000000000000e0 0.000000000000000e0
0.000000000000000e0 0.000000000000000e0 0.000000000000000e0 0.000000000000000e0
0.000000000000000e0 0.000000000000000e0 0.000000000000000e0 0.000000000000000e0
0.000000000000000e0 0.000000000000000e0 0.000000000000000e0 0.000000000000000e0
0.000000000000000e0 0.000000000000000e0 0.000000000000000e0 0.000000000000000e0
0.000000000000000e0 0.000000000000000e0 0.000000000000000e0 0.000000000000000e0
0.000000000000000e0 0.000000000000000e0 0.000000000000000e0 0.000000000000000e0
0.000000000000000e0 0.000000000000000e0 0.000000000000000e0 0.000000000000000e0
0.000000000000000e0 0.000000000000000e0 0.000000000000000e0 0.000000000000000e0
0.000000000000000e0 0.000000000000000e0 0.000000000000000e0 0.000000000000000e0
0.000000000000000e0 0.000000000000000e0 0.000000000000000e0 0.000000000000000e0
0.000000000000000e0 0.000000000000000e0 0.000000000000000e0 0.000000000000000e0
0.000000000000000e0 0.000000000000000e0 0.000000000000000e0 0.000000000000000e0
0.000000000000000e0 0.000000000000000e0 0.000000000000000e0 0.000000000000000e0
0.000000000000000e0 0.000000000000000e0 0.000000000000000e0 0.000000000000000e0
0.000000000000000e0 0.000000000000000e0 0.000000000000000e0 0.000000000000000e0
0.000000000000000e0 0.000000000000000e0 0.000000000000000e0 0.000000000000000e0
0.000000000000000e0 0.000000000000000e0 0.000000000000000e0 0.000000000000000e0
0.000000000000000e0 0.000000000000000e0 0.000000000000000e0 0.000000000000000e0
0.000000000000000e0 0.000000000000000e0 0.000000000000000e0 0.000000000000000e0
0.000000000000000e0 0.000000000000000e0 0.000000000000000e0 0.000000000000000e0
0.000000000000000e0 0.000000000000000e0 0.000000000000000e0 0.000000000000000e0
0.000000000000000e0 0.000000000000000e0 0.000000000000000e0 0.000000000000000e0
0.000000000000000e0 0.000000000000000e0 0.000000000000000e0 0.000000000000000e0
0.000000000000000e0 0.000000000000000e0 0.000000000000000e0 0.000000000000000e0
0.000000000000000e0 0.000000000000000e0 0.000000000000000e0 0.000000000000000e0
0.000000000000000e0 0.000000000000000e0 0.000000000000000e0 0.000000000000000e0
0.000000000000000e0 0.000000000000000e0 0.000000000000000e0 0.000000000000000e0
0.000000000000000e0 0.000000000000000e0 0.000000000000000e0 0.000000000000000e0
0.000000000000000e0 0.000000000000000e0 0.000000000000000e0 0.000000000000000e0
0.000000000000000e0 0.000000000000000e0 0.000000000000000e0 0.000000000000000e0
0.000000000000000e0 0.000000000000000e0 0.000000000000000e0 0.000000000000000e0
0.000000000000000e0 0.000000000000000e0 0.000000000000000e0 0.000000000000000e0
0.000000000000000e0 0.000000000000000e0 0.000000000000000e0 0.000000000000000e0
0.000000000000000e0 0.000000000000000e0 0.000000000000000e0 0.000000000000000e0
0.000000000000000e0 0.000000000000000e0 0.000000000000000e0 0.000000000000000e0
0.000000000000000e0 0.000000000000000e0 0.000000000000000e0 0.000000000000000e0
0.000000000000000e0 0.000000000000000e0 0.000000000000000e0 0.000000000000000e0
0.000000000000000e0 0.000000000000000e0 0.000000000000000e0 0.000000000000000e0
0.000000000000000e0 0.000000000000000e0 0.000000000000000e0 0.000000000000000e0
0.000000000000000e0 0.000000000000000e0 0.000000000000000e0 0.000000000000000e0
0.000000000000000e0 0.000000000000000e0 0.000000000000000e0 0.000000000000000e0
0.000000000000000e0 0.000000000000000e0 0.000000000000000e0 0.000000000000000e0
0.000000000000000e0 0.000000000000000e0 0.000000000000000e0 0.000000000000000e0
0.000000000000000e0 0.000000000000000e0 0.000000000000000e0 0.000000000000000e0
0.000000000000000e0 0.000000000000000e0 0.000000000000000e0 0.000000000000000e0
0.000000000000000e0 0.000000000000000e0 0.000000000000000e0 0.000000000000000e0
0.000000000000000e0 0.000000000000000e0 0.000000000000000e0 0.000000000000000e0
0.000000000000000e0 0.000000000000000e0 0.000000000000000e0 0.000000000000000e0
0.000000000000000e0 0.000000000000000e0 0.000000000000000e0 0.000000000000000e0
0.000000000000000e0 0.000000000000000e0 0.000000000000000e0 0.000000000000000e0
0.000000000000000e0 0.000000000000000e0 0.000000000000000e0 0.000000000000000e0
0.000000000000000e0 0.000000000000000e0 0.000000000000000e0 0.000000000000000e0
0.000000000000000e0 0.000000000000000e0 0.000000000000000e0 0.000000000000000e0
0.000000000000000e0 0.000000000000000e0 0.000000000000000e0 0.000000000000000e0
0.000000000000000e0 0.000000000000000e0 0.000000000000000e0 0.000000000000000e0
0.000000000000000e0 0.000000000000000e0 0.000000000000000e0 0.000000000000000e0
0.000000000000000e0 0.000000000000000e0 0.000000000000000e0 0.000000000000000e0
0.000000000000000e0 0.000000000000000e0 0.000000000000000e0 0.000000000000000e0
0.000000000000000e0 0.000000000000000e0 0.000000000000000e0 0.000000000000000e0
0.000000000000000e0 0.000000000000000e0 0.000000000000000e0 0.000000000000000e0
0.000000000000000e0 0.000000000000000e0 0.000000000000000e0 0.000000000000000e0
0.000000000000000e0 0.000000000000000e0 0.000000000000000e0 0.000000000000000e0
0.000000000000000e0 0.000000000000000e0 0.000000000000000e0 0.000000000000000e0
0.000000000000000e0 0.000000000000000e0 0.000000000000000e0 0.000000000000000e0
0.000000000000000e0
</PP_BETA.2>
<PP_BETA.3 index="3" label="2P" angular_momentum="1" cutoff_radius_index="751" cutoff_radius="1.300000000000e0" ultrasoft_cutoff_radius="1.600000000000e0">
-1.417283049330000e-6 -1.453161740780000e-6 -1.489948705640000e-6 -1.527666936970000e-6
-1.566340009880000e-6 -1.605992096300000e-6 -1.646647980090000e-6 -1.688333072499999e-6
-1.731073428060000e-6 -1.774895760880000e-6 -1.819827461370000e-6 -1.865896613280000e-6
-1.913132011350000e-6 -1.961563179240000e-6 -2.011220388000000e-6 -2.062134675010000e-6
-2.114337863350000e-6 -2.167862581730000e-6 -2.222742284830000e-6 -2.279011274260000e-6
-2.336704719970001e-6 -2.395858682240001e-6 -2.456510134230000e-6 -2.518696985070000e-6
-2.582458103580000e-6 -2.647833342520000e-6 -2.714863563559999e-6 -2.783590662760000e-6
-2.854057596810000e-6 -2.926308409830001e-6 -3.000388260950000e-6 -3.076343452480001e-6
-3.154221458889999e-6 -3.234070956470000e-6 -3.315941853780000e-6 -3.399885322779999e-6
-3.485953830880000e-6 -3.574201173710000e-6 -3.664682508740000e-6 -3.757454389750000e-6
-3.852574802179999e-6 -3.950103199410000e-6 -4.050100539859999e-6 -4.152629325140000e-6
-4.257753639070000e-6 -4.365539187780000e-6 -4.476053340760001e-6 -4.589365172960000e-6
-4.705545507980000e-6 -4.824666962300000e-6 -4.946803990740000e-6 -5.072032932920000e-6
-5.200432061010000e-6 -5.332081628660000e-6 -5.467063921149999e-6 -5.605463306820000e-6
-5.747366289800000e-6 -5.892861564090000e-6 -6.042040068990000e-6 -6.194995045930001e-6
-6.351822096779999e-6 -6.512619243550000e-6 -6.677486989730001e-6 -6.846528383030000e-6
-7.019849079849999e-6 -7.197557411289999e-6 -7.379764450859999e-6 -7.566584083920000e-6
-7.758133078830001e-6 -7.954531160000000e-6 -8.155901082630001e-6 -8.362368709509999e-6
-8.574063089660001e-6 -8.791116538990000e-6 -9.013664722999998e-6 -9.241846741589999e-6
-9.475805215979999e-6 -9.715686377869998e-6 -9.961640160840002e-6 -1.021382029410000e-5
-1.047238439830000e-5 -1.073749408470000e-5 -1.100931505550000e-5 -1.128801720750000e-5
-1.157377473890000e-5 -1.186676625750000e-5 -1.216717489240000e-5 -1.247518840900000e-5
-1.279099932590000e-5 -1.311480503510000e-5 -1.344680792590000e-5 -1.378721551090000e-5
-1.413624055610000e-5 -1.449410121350000e-5 -1.486102115790000e-5 -1.523722972610000e-5
-1.562296206100000e-5 -1.601845925780000e-5 -1.642396851540000e-5 -1.683974329020000e-5
-1.726604345530000e-5 -1.770313546210000e-5 -1.815129250770000e-5 -1.861079470470000e-5
-1.908192925730000e-5 -1.956499064010000e-5 -2.006028078210000e-5 -2.056810925620000e-5
-2.108879347180000e-5 -2.162265887370000e-5 -2.217003914530000e-5 -2.270276201240000e-5
-2.327795778950001e-5 -2.386859624130000e-5 -2.447334000440001e-5 -2.509324252159999e-5
-2.572966452460000e-5 -2.638140708160000e-5 -2.705012447860000e-5 -2.773545507850001e-5
-2.843843631720000e-5 -2.915906434280000e-5 -2.989794916990000e-5 -3.065567801070000e-5
-3.143230450200000e-5 -3.222868514820000e-5 -3.304511895450000e-5 -3.388234787360000e-5
-3.474141080120000e-5 -3.562125303920000e-5 -3.652369372810000e-5 -3.744911649310000e-5
-3.839755397390000e-5 -3.937077464950000e-5 -4.036810145560000e-5 -4.139046380480000e-5
-4.243919050960000e-5 -4.351402628270000e-5 -4.461692717550000e-5 -4.574673955030001e-5
-4.690542117360001e-5 -4.809398534710001e-5 -4.931173706600001e-5 -5.056130279820000e-5
-5.184175721670002e-5 -5.315473186280000e-5 -5.450126765459999e-5 -5.588123731280000e-5
-5.729725231730000e-5 -5.874806497920000e-5 -6.023632058430000e-5 -6.176181579180001e-5
-6.332559885960000e-5 -6.493010554390000e-5 -6.657430427530000e-5 -6.826018950320001e-5
-7.000797765920000e-5 -7.178016936190001e-5 -7.359776806410000e-5 -7.546068826590001e-5
-7.737129565889999e-5 -7.933062442259999e-5 -8.133905572760000e-5 -8.339812113930000e-5
-8.550955252129999e-5 -8.767476208000001e-5 -8.989426517080000e-5 -9.217040032699998e-5
-9.450417301210001e-5 -9.689617177630000e-5 -9.934967616280000e-5 -1.018647835380000e-4
-1.044438824260000e-4 -1.070884536090000e-4 -1.097989701510000e-4 -1.125791900600000e-4
-1.154293336410000e-4 -1.183513751040000e-4 -1.213481877310000e-4 -1.244201361330000e-4
-1.275700862730000e-4 -1.307996920420000e-4 -1.341108850650000e-4 -1.375067205970000e-4
-1.409874525890000e-4 -1.445572933190000e-4 -1.482169528760000e-4 -1.519688955190000e-4
-1.558165883060000e-4 -1.597610139620000e-4 -1.638058593840000e-4 -1.679527916240000e-4
-1.722047907610000e-4 -1.765645864980000e-4 -1.810343573460000e-4 -1.856173867819999e-4
-1.903167609440000e-4 -1.951345665510000e-4 -2.000750032890000e-4 -2.051396626800000e-4
-2.103337081400000e-4 -2.156579170200000e-4 -2.211179816770000e-4 -2.267156987590000e-4
-2.324553087790000e-4 -2.383403124030000e-4 -2.443737782120000e-4 -2.505601124510000e-4
-2.569041060380000e-4 -2.634072239240000e-4 -2.700762905150000e-4 -2.769127431060000e-4
-2.839232926200000e-4 -2.911113831310000e-4 -2.984804269360000e-4 -3.060370819700000e-4
-3.137847165900001e-4 -3.217284433980000e-4 -3.298735208410000e-4 -3.382238072490000e-4
-3.467864059190000e-4 -3.555655773640000e-4 -3.645669921930001e-4 -3.737962131230000e-4
-3.832588059570000e-4 -3.929615364549999e-4 -4.029099832490001e-4 -4.131091232889999e-4
-4.235678604829999e-4 -4.342903492470001e-4 -4.452849885159999e-4 -4.565571532829999e-4
-4.681149901900000e-4 -4.799658856520000e-4 -4.921162785220000e-4 -5.045745170790000e-4
-5.173478455260000e-4 -5.304446891200000e-4 -5.438733368609999e-4 -5.576413489750001e-4
-5.717587716250000e-4 -5.862329175879999e-4 -6.010733459800001e-4 -6.162900014480000e-4
-6.318910231980000e-4 -6.478879263680000e-4 -6.642894842280000e-4 -6.811058382600001e-4
-6.983482515420000e-4 -7.160266874860000e-4 -7.341534972120000e-4 -7.527385629430000e-4
-7.717947839799999e-4 -7.913322747630001e-4 -8.113649970729998e-4 -8.319049159020000e-4
-8.529646331890001e-4 -8.745574093050001e-4 -8.966968192470002e-4 -9.193969689770000e-4
-9.426712505790000e-4 -9.665352455800001e-4 -9.910032083379999e-4 -1.016090070540000e-3
-1.041812738210000e-3 -1.068186308050000e-3 -1.095227015250000e-3 -1.122952414040000e-3
-1.151380107240000e-3 -1.180527287350000e-3 -1.210412010490000e-3 -1.241053241610000e-3
-1.272470250310000e-3 -1.304683027650000e-3 -1.337710303260000e-3 -1.371574473870000e-3
-1.406295705610000e-3 -1.441895630110000e-3 -1.478397046620000e-3 -1.515821784350000e-3
-1.554194603160000e-3 -1.593538553760000e-3 -1.633878557040000e-3 -1.675239441780000e-3
-1.717647496250000e-3 -1.761129300160000e-3 -1.805711562440000e-3 -1.851422382330000e-3
-1.898290178030000e-3 -1.946344593840000e-3 -1.995615102870000e-3 -2.046133347550000e-3
-2.097930174040000e-3 -2.151037900420000e-3 -2.205489908180000e-3 -2.261320648940000e-3
-2.318564548640000e-3 -2.377257822150000e-3 -2.437436279860000e-3 -2.499137991260000e-3
-2.562402294870000e-3 -2.627267418270001e-3 -2.693774178410000e-3 -2.761964982070000e-3
-2.831881937800000e-3 -2.903568532270000e-3 -2.977069875500000e-3 -3.052431489730000e-3
-3.129701004700000e-3 -3.208926119870000e-3 -3.290156871290000e-3 -3.373443617160000e-3
-3.458838579560000e-3 -3.546395566020000e-3 -3.636168065740000e-3 -3.728213463420000e-3
-3.822588639280000e-3 -3.919352337430000e-3 -4.018565745800000e-3 -4.120290359029999e-3
-4.224589460440001e-3 -4.331529170270000e-3 -4.441175560260000e-3 -4.553596779280000e-3
-4.668864455920000e-3 -4.787048870760000e-3 -4.908225269640000e-3 -5.032468617540000e-3
-5.159856508780001e-3 -5.290469480040000e-3 -5.424387604520000e-3 -5.561695854470000e-3
-5.702479067970000e-3 -5.846825859030000e-3 -5.994826284300001e-3 -6.146572029250001e-3
-6.302164874380000e-3 -6.461675499280001e-3 -6.625251602150001e-3 -6.792950098340000e-3
-6.964895281470000e-3 -7.141195699510000e-3 -7.321963243690001e-3 -7.507285679180001e-3
-7.697320987900000e-3 -7.892151798570000e-3 -8.091930314100001e-3 -8.296741015309999e-3
-8.506757311269999e-3 -8.722071162700001e-3 -8.942846656560000e-3 -9.169210342570000e-3
-9.401289921940002e-3 -9.639252397870001e-3 -9.883245718670000e-3 -1.013339397300000e-2
-1.038988998210000e-2 -1.065285809530000e-2 -1.092250045080000e-2 -1.119897484390000e-2
-1.148241087560000e-2 -1.177304778300000e-2 -1.207101708390000e-2 -1.237657137480000e-2
-1.268979404090000e-2 -1.301100057070000e-2 -1.334029211040000e-2 -1.367796043760000e-2
-1.402411890840000e-2 -1.437908506800000e-2 -1.474301994470000e-2 -1.511613675840000e-2
-1.549872922170000e-2 -1.589099828770000e-2 -1.629316133770000e-2 -1.670555620320000e-2
-1.712831003650000e-2 -1.756184395500000e-2 -1.800628620880000e-2 -1.846201768000000e-2
-1.892921063460000e-2 -1.940829064300000e-2 -1.989950638540000e-2 -2.040305790730000e-2
-2.091943769350000e-2 -2.144882426570000e-2 -2.199167121290000e-2 -2.254813693400000e-2
-2.311883295150000e-2 -2.370383462310000e-2 -2.430370289150000e-2 -2.491871884310000e-2
-2.554930100420000e-2 -2.619584289180000e-2 -2.685873736620001e-2 -2.753837264140000e-2
-2.823524268250000e-2 -2.894968120950000e-2 -2.968226884970000e-2 -3.043332800510000e-2
-3.120338038050000e-2 -3.199293910910000e-2 -3.280245163300000e-2 -3.363241755760000e-2
-3.448342707300000e-2 -3.535589636930000e-2 -3.625048078340000e-2 -3.716762608310000e-2
-3.810803918670000e-2 -3.907216635460000e-2 -4.006070490410000e-2 -4.107422919410000e-2
-4.211338016490000e-2 -4.317879635990000e-2 -4.427118746960001e-2 -4.539114967680000e-2
-4.653941826370000e-2 -4.771675969620000e-2 -4.892383063490000e-2 -5.016143548720001e-2
-5.143030478810000e-2 -5.273125211289999e-2 -5.406507935820000e-2 -5.543262540080000e-2
-5.683470384390001e-2 -5.827226080459999e-2 -5.974612212170001e-2 -6.125722650660000e-2
-6.280648336240001e-2 -6.439498418450000e-2 -6.602348888230001e-2 -6.769321739870000e-2
-6.940512456360000e-2 -7.116025816480000e-2 -7.295973652910000e-2 -7.480466071270000e-2
-7.669618297540000e-2 -7.863551509610001e-2 -8.062374326060000e-2 -8.266226435210001e-2
-8.475221019110000e-2 -8.689496189780000e-2 -8.909177131850001e-2 -9.134408203680000e-2
-9.365321733500000e-2 -9.602068684519999e-2 -9.844786509430000e-2 -1.009363349400000e-1
-1.034875808250000e-1 -1.061032462860000e-1 -1.087848679980000e-1 -1.115341799720000e-1
-1.143528364710000e-1 -1.172425992620000e-1 -1.202052769800000e-1 -1.232426355620000e-1
-1.263566261110000e-1 -1.295491435430000e-1 -1.328221236600000e-1 -1.361776645850000e-1
-1.396177524780000e-1 -1.431445868960000e-1 -1.467602814260000e-1 -1.504671069340000e-1
-1.542673287180000e-1 -1.581632936510000e-1 -1.621574036200000e-1 -1.662521097710000e-1
-1.704499396450000e-1 -1.747534825880000e-1 -1.791653623700000e-1 -1.836883115260000e-1
-1.883251081440000e-1 -1.930785813430000e-1 -1.979516664680000e-1 -2.029473547210000e-1
-2.080686871710000e-1 -2.133188374620000e-1 -2.187009869570000e-1 -2.242184490140000e-1
-2.298746026900000e-1 -2.356728913000000e-1 -2.416168803450000e-1 -2.477101778820000e-1
-2.539565040420000e-1 -2.603597026900000e-1 -2.669236293080000e-1 -2.736523187030000e-1
-2.805498386520000e-1 -2.876204165080000e-1 -2.948683127910000e-1 -3.022979616170000e-1
-3.099138568880000e-1 -3.177206075410000e-1 -3.257229649640000e-1 -3.339257531310000e-1
-3.423339450240000e-1 -3.509526055880000e-1 -3.597869585110000e-1 -3.688423028660000e-1
-3.781241238250000e-1 -3.876379819940000e-1 -3.973896069290000e-1 -4.073848465170000e-1
-4.176297003220000e-1 -4.281303050670000e-1 -4.388929356449999e-1 -4.499240241760000e-1
-4.612301594310000e-1 -4.728180633680000e-1 -4.846946477520000e-1 -4.968669494000000e-1
-5.093422097930000e-1 -5.221277992090000e-1 -5.352312881910000e-1 -5.486604171770000e-1
-5.624230786240000e-1 -5.765274032040000e-1 -5.909816356260000e-1 -6.057942812419999e-1
-6.209739753820001e-1 -6.365296009530001e-1 -6.524702119390000e-1 -6.688050671540000e-1
-6.855436488580001e-1 -7.026956420310000e-1 -7.202709372050000e-1 -7.382796621840000e-1
-7.567321548350000e-1 -7.756389859600000e-1 -7.950109452000000e-1 -8.148590758010000e-1
-8.351946339370000e-1 -8.560291404410000e-1 -8.773743434070001e-1 -8.992422389720000e-1
-9.216450965529999e-1 -9.445954026670000e-1 -9.681059376200000e-1 -9.921897197200000e-1
-1.016860041000000e0 -1.042130455510000e0 -1.068014786230000e0 -1.094527132600000e0
-1.121681861390000e0 -1.149493617920000e0 -1.177977326930000e0 -1.207148188350000e0
-1.237021680850000e0 -1.267613576500000e0 -1.298939906930000e0 -1.331017006010000e0
-1.363861479830000e0 -1.397490213050000e0 -1.431920372260000e0 -1.467169406260000e0
-1.503255027160000e0 -1.540195232240000e0 -1.578008275480000e0 -1.616712684270000e0
-1.656327237630000e0 -1.696870969970000e0 -1.738363160470000e0 -1.780823326100000e0
-1.824271212510000e0 -1.868726779970000e0 -1.914210199470000e0 -1.960741832770000e0
-2.008342222480000e0 -2.057032072370000e0 -2.106832236520000e0 -2.157763691370000e0
-2.209847522160000e0 -2.263104896460000e0 -2.317557040000000e0 -2.373225207770000e0
-2.430130657770000e0 -2.488294612030000e0 -2.547738233070000e0 -2.608482568930000e0
-2.670548530820000e0 -2.733956832760000e0 -2.798727954290000e0 -2.864882082030000e0
-2.932439059700000e0 -3.001418322080000e0 -3.071838835450000e0 -3.143719026300000e0
-3.217076709370000e0 -3.291929005160000e0 -3.368292255500000e0 -3.446181936200000e0
-3.525612555620000e0 -3.606597553060000e0 -3.689149188620000e0 -3.773278423050000e0
-3.858994792880000e0 -3.946306279380000e0 -4.035219161290000e0 -4.125737867310000e0
-4.217864815480000e0 -4.311600239480000e0 -4.406942012050000e0 -4.503885451460000e0
-4.602423118540000e0 -4.702544606330000e0 -4.804236307150000e0 -4.907481180780000e0
-5.012258500550000e0 -5.118543584080000e0 -5.226307520520000e0 -5.335516873790000e0
-5.446133373870000e0 -5.558113597360000e0 -5.671408623020000e0 -5.785963685460000e0
-5.901717797300000e0 -6.018603367450000e0 -6.136545799190000e0 -6.255463067720000e0
-6.375265290290000e0 -6.495854270920000e0 -6.617123038260000e0 -6.738955360040000e0
-6.861225249720000e0 -6.983796456260000e0 -7.106521937940000e0 -7.229243330590000e0
-7.351790403250000e0 -7.473980500180000e0 -7.595617985390000e0 -7.716493673270000e0
-7.836384264210000e0 -7.955051781210000e0 -8.072243003930000e0 -8.187688922320000e0
-8.301104192120000e0 -8.412186617750001e0 -8.520616652939999e0 -8.626056929530000e0
-8.728151828720000e0 -8.826527087420001e0 -8.920789464149999e0 -9.010526458979999e0
-9.095306104390000e0 -9.174676840169999e0 -9.248167474330000e0 -9.315287253850000e0
-9.375526044350000e0 -9.428354646140001e0 -9.473225255710000e0 -9.509572081880000e0
-9.536812147799999e0 -9.554346280390000e0 -9.561560316850001e0 -9.557826544719999e0
-9.542505384000000e0 -9.514947353200000e0 -9.474495315900000e0 -9.420487045180000e0
-9.352258119000000e0 -9.269145165399999e0 -9.170489486690000e0 -9.055641064730001e0
-8.923962984719999e0 -8.774836275889999e0 -8.607665194799999e0 -8.421882955819999e0
-8.216957921380001e0 -7.992400249270000e0 -7.747769007740000e0 -7.482679737600000e0
-7.196812466430000e0 -6.889920140910000e0 -6.561837456480000e0 -6.212490057560000e0
-5.841904037240000e0 -5.450215713730000e0 -5.037681580400000e0 -4.604688370740000e0
-4.151763130840000e0 -3.679583179120000e0 -3.188985841670000e0 -2.680977792020000e0
-2.156743843370000e0 -1.617654999930000e0 -1.065275552020000e0 -5.013689963280000e-1
7.209748370730001e-2 6.529502434859999e-1 1.238808405750000e0 1.827085413300000e0
2.414993228540000e0 2.999549540670000e0 3.577588330740000e0 4.145774167540000e0
4.700620600470000e0 5.238512999310000e0 5.755736192380000e0 6.248507191610000e0
6.713013270570000e0 7.145455575010000e0 7.542098353150000e0 7.899323776680000e0
8.213692154800000e0 8.482007148079999e0 8.701385346140000e0 8.869329251650001e0
8.983802369630000e0 9.043304624690000e0 9.046945822500000e0 8.994514224890001e0
8.886536561120000e0 8.724324929320000e0 8.510004996299999e0 8.246518709029999e0
7.937593315130000e0 7.587666828150000e0 7.201758142370000e0 6.785267697500000e0
6.343691886780000e0 5.882231171850000e0 5.405267994260000e0 4.915685951590000e0
4.413996114210000e0 3.899232572280000e0 3.375737593710000e0 2.850082237480000e0
2.329530762040000e0 1.822042928190000e0 1.336267924300000e0 8.815287070580000e-1
4.677954861540000e-1 1.056470594100000e-1 -1.937814322360000e-1 -4.188647268720000e-1
-5.575781044319999e-1 -5.975249020570001e-1 -5.267653580970000e-1 -3.270609098300000e-1
-4.101492824260000e-2 4.103154427040000e-3 -3.647368435070000e-4 9.230092271030001e-5
4.549472004139999e-5 5.578560963090000e-5 6.022123893060000e-5 6.505042594410000e-5
6.964236639099999e-5 7.404859209370001e-5 7.826194433410000e-5 0.000000000000000e0
0.000000000000000e0 0.000000000000000e0 0.000000000000000e0 0.000000000000000e0
0.000000000000000e0 0.000000000000000e0 0.000000000000000e0 0.000000000000000e0
0.000000000000000e0 0.000000000000000e0 0.000000000000000e0 0.000000000000000e0
0.000000000000000e0 0.000000000000000e0 0.000000000000000e0 0.000000000000000e0
0.000000000000000e0 0.000000000000000e0 0.000000000000000e0 0.000000000000000e0
0.000000000000000e0 0.000000000000000e0 0.000000000000000e0 0.000000000000000e0
0.000000000000000e0 0.000000000000000e0 0.000000000000000e0 0.000000000000000e0
0.000000000000000e0 0.000000000000000e0 0.000000000000000e0 0.000000000000000e0
0.000000000000000e0 0.000000000000000e0 0.000000000000000e0 0.000000000000000e0
0.000000000000000e0 0.000000000000000e0 0.000000000000000e0 0.000000000000000e0
0.000000000000000e0 0.000000000000000e0 0.000000000000000e0 0.000000000000000e0
0.000000000000000e0 0.000000000000000e0 0.000000000000000e0 0.000000000000000e0
0.000000000000000e0 0.000000000000000e0 0.000000000000000e0 0.000000000000000e0
0.000000000000000e0 0.000000000000000e0 0.000000000000000e0 0.000000000000000e0
0.000000000000000e0 0.000000000000000e0 0.000000000000000e0 0.000000000000000e0
0.000000000000000e0 0.000000000000000e0 0.000000000000000e0 0.000000000000000e0
0.000000000000000e0 0.000000000000000e0 0.000000000000000e0 0.000000000000000e0
0.000000000000000e0 0.000000000000000e0 0.000000000000000e0 0.000000000000000e0
0.000000000000000e0 0.000000000000000e0 0.000000000000000e0 0.000000000000000e0
0.000000000000000e0 0.000000000000000e0 0.000000000000000e0 0.000000000000000e0
0.000000000000000e0 0.000000000000000e0 0.000000000000000e0 0.000000000000000e0
0.000000000000000e0 0.000000000000000e0 0.000000000000000e0 0.000000000000000e0
0.000000000000000e0 0.000000000000000e0 0.000000000000000e0 0.000000000000000e0
0.000000000000000e0 0.000000000000000e0 0.000000000000000e0 0.000000000000000e0
0.000000000000000e0 0.000000000000000e0 0.000000000000000e0 0.000000000000000e0
0.000000000000000e0 0.000000000000000e0 0.000000000000000e0 0.000000000000000e0
0.000000000000000e0 0.000000000000000e0 0.000000000000000e0 0.000000000000000e0
0.000000000000000e0 0.000000000000000e0 0.000000000000000e0 0.000000000000000e0
0.000000000000000e0 0.000000000000000e0 0.000000000000000e0 0.000000000000000e0
0.000000000000000e0 0.000000000000000e0 0.000000000000000e0 0.000000000000000e0
0.000000000000000e0 0.000000000000000e0 0.000000000000000e0 0.000000000000000e0
0.000000000000000e0 0.000000000000000e0 0.000000000000000e0 0.000000000000000e0
0.000000000000000e0 0.000000000000000e0 0.000000000000000e0 0.000000000000000e0
0.000000000000000e0 0.000000000000000e0 0.000000000000000e0 0.000000000000000e0
0.000000000000000e0 0.000000000000000e0 0.000000000000000e0 0.000000000000000e0
0.000000000000000e0 0.000000000000000e0 0.000000000000000e0 0.000000000000000e0
0.000000000000000e0 0.000000000000000e0 0.000000000000000e0 0.000000000000000e0
0.000000000000000e0 0.000000000000000e0 0.000000000000000e0 0.000000000000000e0
0.000000000000000e0 0.000000000000000e0 0.000000000000000e0 0.000000000000000e0
0.000000000000000e0 0.000000000000000e0 0.000000000000000e0 0.000000000000000e0
0.000000000000000e0 0.000000000000000e0 0.000000000000000e0 0.000000000000000e0
0.000000000000000e0 0.000000000000000e0 0.000000000000000e0 0.000000000000000e0
0.000000000000000e0 0.000000000000000e0 0.000000000000000e0 0.000000000000000e0
0.000000000000000e0 0.000000000000000e0 0.000000000000000e0 0.000000000000000e0
0.000000000000000e0 0.000000000000000e0 0.000000000000000e0 0.000000000000000e0
0.000000000000000e0 0.000000000000000e0 0.000000000000000e0 0.000000000000000e0
0.000000000000000e0 0.000000000000000e0 0.000000000000000e0 0.000000000000000e0
0.000000000000000e0 0.000000000000000e0 0.000000000000000e0 0.000000000000000e0
0.000000000000000e0 0.000000000000000e0 0.000000000000000e0 0.000000000000000e0
0.000000000000000e0 0.000000000000000e0 0.000000000000000e0 0.000000000000000e0
0.000000000000000e0 0.000000000000000e0 0.000000000000000e0 0.000000000000000e0
0.000000000000000e0 0.000000000000000e0 0.000000000000000e0 0.000000000000000e0
0.000000000000000e0 0.000000000000000e0 0.000000000000000e0 0.000000000000000e0
0.000000000000000e0 0.000000000000000e0 0.000000000000000e0 0.000000000000000e0
0.000000000000000e0 0.000000000000000e0 0.000000000000000e0 0.000000000000000e0
0.000000000000000e0 0.000000000000000e0 0.000000000000000e0 0.000000000000000e0
0.000000000000000e0 0.000000000000000e0 0.000000000000000e0 0.000000000000000e0
0.000000000000000e0 0.000000000000000e0 0.000000000000000e0 0.000000000000000e0
0.000000000000000e0 0.000000000000000e0 0.000000000000000e0 0.000000000000000e0
0.000000000000000e0 0.000000000000000e0 0.000000000000000e0 0.000000000000000e0
0.000000000000000e0 0.000000000000000e0 0.000000000000000e0 0.000000000000000e0
0.000000000000000e0 0.000000000000000e0 0.000000000000000e0 0.000000000000000e0
0.000000000000000e0 0.000000000000000e0 0.000000000000000e0 0.000000000000000e0
0.000000000000000e0 0.000000000000000e0 0.000000000000000e0 0.000000000000000e0
0.000000000000000e0 0.000000000000000e0 0.000000000000000e0 0.000000000000000e0
0.000000000000000e0 0.000000000000000e0 0.000000000000000e0 0.000000000000000e0
0.000000000000000e0 0.000000000000000e0 0.000000000000000e0 0.000000000000000e0
0.000000000000000e0 0.000000000000000e0 0.000000000000000e0 0.000000000000000e0
0.000000000000000e0 0.000000000000000e0 0.000000000000000e0 0.000000000000000e0
0.000000000000000e0 0.000000000000000e0 0.000000000000000e0 0.000000000000000e0
0.000000000000000e0 0.000000000000000e0 0.000000000000000e0 0.000000000000000e0
0.000000000000000e0 0.000000000000000e0 0.000000000000000e0 0.000000000000000e0
0.000000000000000e0 0.000000000000000e0 0.000000000000000e0 0.000000000000000e0
0.000000000000000e0 0.000000000000000e0 0.000000000000000e0 0.000000000000000e0
0.000000000000000e0 0.000000000000000e0 0.000000000000000e0 0.000000000000000e0
0.000000000000000e0 0.000000000000000e0 0.000000000000000e0 0.000000000000000e0
0.000000000000000e0 0.000000000000000e0 0.000000000000000e0 0.000000000000000e0
0.000000000000000e0 0.000000000000000e0 0.000000000000000e0 0.000000000000000e0
0.000000000000000e0 0.000000000000000e0 0.000000000000000e0 0.000000000000000e0
0.000000000000000e0 0.000000000000000e0 0.000000000000000e0 0.000000000000000e0
0.000000000000000e0
</PP_BETA.3>
<PP_BETA.4 index="4" label="2P" angular_momentum="1" cutoff_radius_index="751" cutoff_radius="1.300000000000e0" ultrasoft_cutoff_radius="1.600000000000e0">
2.149688000040000e-6 2.204107613790000e-6 2.259904866770000e-6 2.317114634089999e-6
2.375772673740000e-6 2.435915648900000e-6 2.497581150910000e-6 2.560807722740000e-6
2.625634883050000e-6 2.692103150950000e-6 2.760254071290000e-6 2.830130240630000e-6
2.901775333860001e-6 2.975234131530000e-6 3.050552547780000e-6 3.127777659109999e-6
3.206957733750000e-6 3.288142261840000e-6 3.371381986370000e-6 3.456728934920000e-6
3.544236452130000e-6 3.633959233070001e-6 3.725953357430000e-6 3.820276324570000e-6
3.916987089450000e-6 4.016146099460000e-6 4.117815332270000e-6 4.222058334490000e-6
4.328940261429999e-6 4.438527917800000e-6 4.550889799520000e-6 4.666096136460000e-6
4.784218936380000e-6 4.905332029930001e-6 5.029511116780000e-6 5.156833812959999e-6
5.287379699380001e-6 5.421230371500000e-6 5.558469490440000e-6 5.699182835169999e-6
5.843458356190000e-6 5.991386230469999e-6 6.143058917830000e-6 6.298571218720000e-6
6.458020333480001e-6 6.621505923100001e-6 6.789130171470001e-6 6.960997849329999e-6
7.137216379669999e-6 7.317895904929999e-6 7.503149355800000e-6 7.693092521860000e-6
7.887844123890000e-6 8.087525888129999e-6 8.292262622330000e-6 8.502182293759999e-6
8.717416109220000e-6 8.938098597010001e-6 9.164367691060001e-6 9.396364817100002e-6
9.634234981080001e-6 9.878126859820000e-6 1.012819289390000e-5 1.038458938290000e-5
1.064747658330000e-5 1.091701880840000e-5 1.119338453110000e-5 1.147674648930000e-5
1.176728179360000e-5 1.206517203850000e-5 1.237060341540000e-5 1.268376682910000e-5
1.300485801740000e-5 1.333407767310000e-5 1.367163156960000e-5 1.401773068940000e-5
1.437259135620000e-5 1.473643537000000e-5 1.510949014560000e-5 1.549198885490000e-5
1.588417057250000e-5 1.628628042539999e-5 1.669856974600000e-5 1.712129622900000e-5
1.755472409300000e-5 1.799912424520000e-5 1.845477445080000e-5 1.892195950690000e-5
1.940097142000000e-5 1.989210958920000e-5 2.039568099250000e-5 2.091200037960000e-5
2.144139046770000e-5 2.198418214400000e-5 2.254071467190000e-5 2.311133590370000e-5
2.369640249720000e-5 2.429628013950000e-5 2.491134377490000e-5 2.554197783970000e-5
2.618857650200001e-5 2.685154390870000e-5 2.753129443750000e-5 2.822825295640000e-5
2.894285508890000e-5 2.967554748650000e-5 3.042678810780000e-5 3.119704650460000e-5
3.198680411580001e-5 3.279655456790000e-5 3.362680398359999e-5 3.443020129490000e-5
3.530260007760000e-5 3.619856367800001e-5 3.711578717800000e-5 3.805597783449999e-5
3.902135723110000e-5 4.000984819550000e-5 4.102416190970000e-5 4.206362355080000e-5
4.312990534680000e-5 4.422292965370000e-5 4.534364758550000e-5 4.649297012810000e-5
4.767091060619999e-5 4.887882825759999e-5 5.011714439840000e-5 5.138702192430000e-5
5.269012014520000e-5 5.402458149820001e-5 5.539337082250000e-5 5.679704075630000e-5
5.823555239000000e-5 5.971177857029999e-5 6.122448413230001e-5 6.277512837150000e-5
6.436583854020000e-5 6.599607988130001e-5 6.766902734709999e-5 6.938263258560000e-5
7.114006784689999e-5 7.294291691660000e-5 7.478989270290000e-5 7.668528115980000e-5
7.862740236310000e-5 8.061886565910001e-5 8.266128557239998e-5 8.475431209210001e-5
8.690218958660001e-5 8.910268011140001e-5 9.136007762249999e-5 9.367389008000000e-5
9.604572281540001e-5 9.847950658270001e-5 1.009733471780000e-4 1.035304263710000e-4
1.061957113270000e-4 1.088837204430000e-4 1.116404768440000e-4 1.144661204170000e-4
1.173639511640000e-4 1.203359256150000e-4 1.233824991610000e-4 1.265049930850000e-4
1.297080940440000e-4 1.329919417440000e-4 1.363584319200000e-4 1.398109844270000e-4
1.433504286260000e-4 1.469788604640000e-4 1.506999834940000e-4 1.545147890990000e-4
1.584269780960000e-4 1.624377621320000e-4 1.665495217180000e-4 1.707659776670000e-4
1.750892130250000e-4 1.795212602400000e-4 1.840664282290000e-4 1.887263127580000e-4
1.935036525250000e-4 1.984023565860000e-4 2.034246349640001e-4 2.085751540400000e-4
2.138548863420000e-4 2.192693096820000e-4 2.248202858120000e-4 2.305110821080000e-4
2.363468108170000e-4 2.423300123400000e-4 2.484648070840000e-4 2.547548166350000e-4
2.612042374570000e-4 2.678165738040001e-4 2.745966696350000e-4 2.815476390190000e-4
2.886757088340000e-4 2.959832332080000e-4 3.034762377300000e-4 3.111585390920000e-4
3.190364365830000e-4 3.271120553050000e-4 3.353939149770000e-4 3.438838360309999e-4
3.525900254870000e-4 3.615158286330000e-4 3.706671138370000e-4 3.800504091120000e-4
3.896725517170000e-4 3.995366003370000e-4 4.096517656260001e-4 4.200208343789999e-4
4.306544678360000e-4 4.415566839460000e-4 4.527341038459999e-4 4.641953799230000e-4
4.759468357120000e-4 4.879957856600000e-4 5.003496151130000e-4 5.130151736150000e-4
5.260022359269999e-4 5.393183905280000e-4 5.529714422720000e-4 5.669694683460000e-4
5.813223091749999e-4 5.960387630150001e-4 6.111284130740000e-4 6.265978949530000e-4
6.424610411990001e-4 6.587247939619999e-4 6.754007575300001e-4 6.924978628740000e-4
7.100283107690000e-4 7.280029413890000e-4 7.464326239450001e-4 7.653284277610001e-4
7.847023276959999e-4 8.045671103710001e-4 8.249347463820001e-4 8.458178247530000e-4
8.672302457890000e-4 8.891840259990001e-4 9.116932538959999e-4 9.347731050640002e-4
9.584359885509999e-4 9.826991792289999e-4 1.007576440640000e-3 1.033082598520000e-3
1.059234789040000e-3 1.086048630600000e-3 1.113542338930000e-3 1.141731314890000e-3
1.170634933650000e-3 1.200268069810000e-3 1.230652677830000e-3 1.261806526180000e-3
1.293748780930000e-3 1.326499503350000e-3 1.360079060710000e-3 1.394509660510000e-3
1.429810439350000e-3 1.466006104340000e-3 1.503117805670000e-3 1.541167778160000e-3
1.580182540100000e-3 1.620184388040000e-3 1.661197929280000e-3 1.703250055270000e-3
1.746367496930000e-3 1.790576051560000e-3 1.835903212290000e-3 1.882377788430000e-3
1.930028979170000e-3 1.978887210210000e-3 2.028980711970000e-3 2.080343495390000e-3
2.133006335440000e-3 2.187001867620000e-3 2.242364521370000e-3 2.299127520100000e-3
2.357328580110000e-3 2.417002680490000e-3 2.478187332770000e-3 2.540920177490000e-3
2.605241639420000e-3 2.671191164240000e-3 2.738810115400000e-3 2.808140630050000e-3
2.879225615510000e-3 2.952110583240000e-3 3.026839820340000e-3 3.103461520840000e-3
3.182022662270001e-3 3.262571407380000e-3 3.345159303750000e-3 3.429838057190000e-3
3.516660459520000e-3 3.605680851760000e-3 3.696953559580001e-3 3.790536668810001e-3
3.886489562820000e-3 3.984870499770000e-3 4.085740986130000e-3 4.189165435740001e-3
4.295208196430000e-3 4.403934467120000e-3 4.515413226090001e-3 4.629713208320000e-3
4.746906688480000e-3 4.867066080930000e-3 4.990267201819999e-3 5.116586267910000e-3
5.246102948919999e-3 5.378898293140000e-3 5.515053698110000e-3 5.654656099660000e-3
5.797791849240000e-3 5.944549929030000e-3 6.095022892079999e-3 6.249304645010000e-3
6.407490337390000e-3 6.569680846800001e-3 6.735976269910000e-3 6.906479582430000e-3
7.081299676300000e-3 7.260543015140000e-3 7.444323877220000e-3 7.632755654129999e-3
7.825956335030000e-3 8.024047382560001e-3 8.227151179460000e-3 8.435395751369999e-3
8.648910016780000e-3 8.867828436110001e-3 9.092287160940000e-3 9.322425465549999e-3
9.558402077350001e-3 9.800304781399999e-3 1.004839363990000e-2 1.030271995730000e-2
1.056348816330000e-2 1.083086301290000e-2 1.110501569700000e-2 1.138605989170000e-2
1.167426725530000e-2 1.196973582240000e-2 1.227271964690000e-2 1.258331570200000e-2
1.290182172160000e-2 1.322834716440000e-2 1.356316351630000e-2 1.390645379130000e-2
1.425840075230000e-2 1.461927839110000e-2 1.498929597950000e-2 1.536864621420000e-2
1.575762228400000e-2 1.615640436200000e-2 1.656531638140000e-2 1.698458827590000e-2
1.741440304420000e-2 1.785514107540000e-2 1.830699650520000e-2 1.877036244440000e-2
1.924532797110000e-2 1.973242892200000e-2 2.023176364160000e-2 2.074381367050000e-2
2.126872081900000e-2 2.180699446020000e-2 2.235885772420000e-2 2.292463937760000e-2
2.350478713820000e-2 2.409961099910000e-2 2.470942026310000e-2 2.533475445430000e-2
2.597577419269999e-2 2.663315467000000e-2 2.730705935930000e-2 2.799807933690000e-2
2.870646627570000e-2 2.943286279000001e-2 3.017771796440000e-2 3.094115972670000e-2
3.172413806320000e-2 3.252678474500001e-2 3.334986356240000e-2 3.419353228400000e-2
3.505884022650000e-2 3.594576829190000e-2 3.685525266490000e-2 3.778768477270000e-2
3.874370964190000e-2 3.972392547660000e-2 4.072892587620000e-2 4.175926908220000e-2
4.281576010419999e-2 4.389883883900000e-2 4.500945707350001e-2 4.614804344420000e-2
4.731539295710000e-2 4.851231997750000e-2 4.973947123579999e-2 5.099759295749999e-2
5.228763708570000e-2 5.361014957069999e-2 5.496619353900000e-2 5.635638141129999e-2
5.778186204860001e-2 5.924321928970000e-2 6.074157511900000e-2 6.227777892060001e-2
6.385278668329999e-2 6.546756948450000e-2 6.712323514070000e-2 6.882061779840000e-2
7.056089154890000e-2 7.234517858920000e-2 7.417449553750000e-2 7.605004135220001e-2
7.797292009450000e-2 7.994438137569999e-2 8.196560631320001e-2 8.403789118780001e-2
8.616244453720000e-2 8.834071614140001e-2 9.057393635040000e-2 9.286352650649999e-2
9.521086504259999e-2 9.761760736500001e-2 1.000848693010000e-1 1.026145408100000e-1
1.052080233530000e-1 1.078669238190000e-1 1.105929122230000e-1 1.133876582550000e-1
1.162529076090000e-1 1.191904801830000e-1 1.222020086870000e-1 1.252896236000000e-1
1.284550001940000e-1 1.317002556930000e-1 1.350272448430000e-1 1.384381672240000e-1
1.419350053280000e-1 1.455200490890000e-1 1.491953480020000e-1 1.529633081920000e-1
1.568261477710000e-1 1.607863624540000e-1 1.648462491910000e-1 1.690084247750000e-1
1.732753829040000e-1 1.776497676130000e-1 1.821343203050000e-1 1.867316653080000e-1
1.914447664360000e-1 1.962764662020000e-1 2.012296650060000e-1 2.063075345770000e-1
2.115130363510000e-1 2.168495113020000e-1 2.223200950830000e-1 2.279282292220000e-1
2.336773004180000e-1 2.395708366920000e-1 2.456124426840000e-1 2.518057972870000e-1
2.581546909580000e-1 2.646630129210000e-1 2.713346854680000e-1 2.781738174860000e-1
2.851845697860000e-1 2.923711718930000e-1 2.997380299440000e-1 3.072896230330000e-1
3.150304919320000e-1 3.229654040030000e-1 3.310990989880000e-1 3.394365442510000e-1
3.479827899450000e-1 3.567429758790000e-1 3.657224370990000e-1 3.749265530030000e-1
3.843608815670000e-1 3.940311623630000e-1 4.039431396279999e-1 4.141028361650000e-1
4.245163090060000e-1 4.351898646830000e-1 4.461298387780000e-1 4.573428423010000e-1
4.688355566080000e-1 4.806148382070000e-1 4.926877531510000e-1 5.050614690720000e-1
5.177433748810000e-1 5.307409857200000e-1 5.440620608020001e-1 5.577144535600000e-1
5.717063019389999e-1 5.860458421370000e-1 6.007415613019999e-1 6.158021153140000e-1
6.312363806580001e-1 6.470534330250000e-1 6.632625440660000e-1 6.798732151280000e-1
6.968951741030000e-1 7.143383351470000e-1 7.322128929220000e-1 7.505292136340000e-1
7.692979666770000e-1 7.885299933770000e-1 8.082364343090001e-1 8.284286677879999e-1
8.491182806290000e-1 8.703172217020001e-1 8.920375734300000e-1 9.142918170030001e-1
9.370925947680000e-1 9.604529191770000e-1 9.843860362350000e-1 1.008905478490000e0
1.034025105780000e0 1.059759057140000e0 1.086121759250000e0 1.113127981700000e0
1.140792784160000e0 1.169131556100000e0 1.198159990960000e0 1.227894146900000e0
1.258350368720000e0 1.289545384510000e0 1.321496231190000e0 1.354220293370000e0
1.387735347170000e0 1.422059456460000e0 1.457211107970000e0 1.493209112220000e0
1.530072664950000e0 1.567821325420000e0 1.606475023970000e0 1.646054081300000e0
1.686579184110000e0 1.728071407480000e0 1.770552217720000e0 1.814043458530000e0
1.858567363220000e0 1.904146575990000e0 1.950804093170000e0 1.998563342480000e0
2.047448122660000e0 2.097482625550000e0 2.148691433780000e0 2.201099528890000e0
2.254732257890000e0 2.309615373830000e0 2.365774988320000e0 2.423237604190000e0
2.482030082220000e0 2.542179650470000e0 2.603713890360000e0 2.666660731490000e0
2.731048441660000e0 2.796905606610000e0 2.864261136020000e0 2.933144232400000e0
3.003584386690000e0 3.075611354080000e0 3.149255144450000e0 3.224545991240000e0
3.301514337490000e0 3.380190808350000e0 3.460606185620000e0 3.542791373810000e0
3.626777379330000e0 3.712595259860000e0 3.800276110800000e0 3.889850994880000e0
3.981350929540000e0 4.074806816710000e0 4.170249407040000e0 4.267709234420000e0
4.367216570460000e0 4.468801346220000e0 4.572493097100000e0 4.678320884100000e0
4.786313220030000e0 4.896497981660000e0 5.008902319870000e0 5.123552572020000e0
5.240474149870000e0 5.359691436480000e0 5.481227668550000e0 5.605104808010000e0
5.731343411630000e0 5.859962492190000e0 5.990979359520000e0 6.124409465050000e0
6.260266230060000e0 6.398560857270000e0 6.539302143110000e0 6.682496266620000e0
6.828146569030000e0 6.976253326440000e0 7.126813491060000e0 7.279820438490000e0
7.435263685650000e0 7.593128588860000e0 7.753396039320000e0 7.916042128870000e0
8.081037794149999e0 8.248348456110000e0 8.417933615170000e0 8.589746452769999e0
8.763733381880000e0 8.939833594340000e0 9.117978579140001e0 9.298091604990001e0
9.480087195430000e0 9.663870558270000e0 9.849337004540001e0 1.003637132480000e1
1.022484714850000e1 1.041462627030000e1 1.060555794190000e1 1.079747814440000e1
1.099020882890000e1 1.118355711990000e1 1.137731450540000e1 1.157125598450000e1
1.176513920010000e1 1.195870354690000e1 1.215166924470000e1 1.234373640970000e1
1.253458409200000e1 1.272386931330000e1 1.291122609010000e1 1.309626444680000e1
1.327856944420000e1 1.345770020370000e1 1.363318895740000e1 1.380454011910000e1
1.397122938670000e1 1.413270289960000e1 1.428837644830000e1 1.443763476170000e1
1.457983087660000e1 1.471428561780000e1 1.484028720500000e1 1.495709099660000e1
1.506391941140000e1 1.515996203470000e1 1.524437595050000e1 1.531628632150000e1
1.537478723860000e1 1.541894289830000e1 1.544778911460000e1 1.546033522040000e1
1.545556639210000e1 1.543244643370000e1 1.538992107570000e1 1.532692180810000e1
1.524237032300000e1 1.513518357910000e1 1.500427955850000e1 1.484858374130000e1
1.466703635290000e1 1.445860040820000e1 1.422227061020000e1 1.395708310920000e1
1.366212617210000e1 1.333655176520000e1 1.297958805730000e1 1.259055286920000e1
1.216886800580000e1 1.171407450480000e1 1.122584869810000e1 1.070401906150000e1
1.014858375110000e1 9.559728701859999e0 8.937846180739999e0 8.283553586580000e0
7.597712319680000e0 6.881446470440000e0 6.136161035430000e0 5.363559358600000e0
4.565659403720000e0 3.744808457540000e0 2.903695791560000e0 2.045362754200000e0
1.173209745340000e0 2.909994312890000e-1 -5.971444457260001e-1 -1.486743383540000e0
-2.372976304600000e0 -3.250698364280000e0 -4.114467189740000e0 -4.958577295130000e0
-5.777103438700000e0 -6.563953601710000e0 -7.312932169660000e0 -8.017813776820001e0
-8.672428047950000e0 -9.270755215960000e0 -9.807032254219999e0 -1.027586867200000e1
-1.067237061280000e1 -1.099227112040000e1 -1.123206361540000e1 -1.138913453870000e1
-1.146188981540000e1 -1.144986827000000e1 -1.135383322110000e1 -1.117583128630000e1
-1.091920476790000e1 -1.058854081480000e1 -1.018953682740000e1 -9.728757053370000e0
-9.213249980980001e0 -8.649989710320000e0 -8.045096732999999e0 -7.402784281640000e0
-6.723965143870000e0 -6.007436752060000e0 -5.260014265620000e0 -4.492166262590000e0
-3.715786694180000e0 -2.944227465700000e0 -2.192316067480000e0 -1.476355681340000e0
-8.141050094600001e-1 -2.247349899560000e-1 2.712407371330000e-1 6.520630531410000e-1
8.948707247580000e-1 9.757431624260001e-1 8.711003326560000e-1 5.463282352799999e-1
6.894862084060000e-2 -7.091152816730001e-3 4.388748858230000e-4 -3.309624305030000e-4
-2.514891872090000e-4 -2.679351332640000e-4 -2.742849754160000e-4 -2.810794495010000e-4
-2.872689198610001e-4 -2.929560894280000e-4 -2.981426789330000e-4 0.000000000000000e0
0.000000000000000e0 0.000000000000000e0 0.000000000000000e0 0.000000000000000e0
0.000000000000000e0 0.000000000000000e0 0.000000000000000e0 0.000000000000000e0
0.000000000000000e0 0.000000000000000e0 0.000000000000000e0 0.000000000000000e0
0.000000000000000e0 0.000000000000000e0 0.000000000000000e0 0.000000000000000e0
0.000000000000000e0 0.000000000000000e0 0.000000000000000e0 0.000000000000000e0
0.000000000000000e0 0.000000000000000e0 0.000000000000000e0 0.000000000000000e0
0.000000000000000e0 0.000000000000000e0 0.000000000000000e0 0.000000000000000e0
0.000000000000000e0 0.000000000000000e0 0.000000000000000e0 0.000000000000000e0
0.000000000000000e0 0.000000000000000e0 0.000000000000000e0 0.000000000000000e0
0.000000000000000e0 0.000000000000000e0 0.000000000000000e0 0.000000000000000e0
0.000000000000000e0 0.000000000000000e0 0.000000000000000e0 0.000000000000000e0
0.000000000000000e0 0.000000000000000e0 0.000000000000000e0 0.000000000000000e0
0.000000000000000e0 0.000000000000000e0 0.000000000000000e0 0.000000000000000e0
0.000000000000000e0 0.000000000000000e0 0.000000000000000e0 0.000000000000000e0
0.000000000000000e0 0.000000000000000e0 0.000000000000000e0 0.000000000000000e0
0.000000000000000e0 0.000000000000000e0 0.000000000000000e0 0.000000000000000e0
0.000000000000000e0 0.000000000000000e0 0.000000000000000e0 0.000000000000000e0
0.000000000000000e0 0.000000000000000e0 0.000000000000000e0 0.000000000000000e0
0.000000000000000e0 0.000000000000000e0 0.000000000000000e0 0.000000000000000e0
0.000000000000000e0 0.000000000000000e0 0.000000000000000e0 0.000000000000000e0
0.000000000000000e0 0.000000000000000e0 0.000000000000000e0 0.000000000000000e0
0.000000000000000e0 0.000000000000000e0 0.000000000000000e0 0.000000000000000e0
0.000000000000000e0 0.000000000000000e0 0.000000000000000e0 0.000000000000000e0
0.000000000000000e0 0.000000000000000e0 0.000000000000000e0 0.000000000000000e0
0.000000000000000e0 0.000000000000000e0 0.000000000000000e0 0.000000000000000e0
0.000000000000000e0 0.000000000000000e0 0.000000000000000e0 0.000000000000000e0
0.000000000000000e0 0.000000000000000e0 0.000000000000000e0 0.000000000000000e0
0.000000000000000e0 0.000000000000000e0 0.000000000000000e0 0.000000000000000e0
0.000000000000000e0 0.000000000000000e0 0.000000000000000e0 0.000000000000000e0
0.000000000000000e0 0.000000000000000e0 0.000000000000000e0 0.000000000000000e0
0.000000000000000e0 0.000000000000000e0 0.000000000000000e0 0.000000000000000e0
0.000000000000000e0 0.000000000000000e0 0.000000000000000e0 0.000000000000000e0
0.000000000000000e0 0.000000000000000e0 0.000000000000000e0 0.000000000000000e0
0.000000000000000e0 0.000000000000000e0 0.000000000000000e0 0.000000000000000e0
0.000000000000000e0 0.000000000000000e0 0.000000000000000e0 0.000000000000000e0
0.000000000000000e0 0.000000000000000e0 0.000000000000000e0 0.000000000000000e0
0.000000000000000e0 0.000000000000000e0 0.000000000000000e0 0.000000000000000e0
0.000000000000000e0 0.000000000000000e0 0.000000000000000e0 0.000000000000000e0
0.000000000000000e0 0.000000000000000e0 0.000000000000000e0 0.000000000000000e0
0.000000000000000e0 0.000000000000000e0 0.000000000000000e0 0.000000000000000e0
0.000000000000000e0 0.000000000000000e0 0.000000000000000e0 0.000000000000000e0
0.000000000000000e0 0.000000000000000e0 0.000000000000000e0 0.000000000000000e0
0.000000000000000e0 0.000000000000000e0 0.000000000000000e0 0.000000000000000e0
0.000000000000000e0 0.000000000000000e0 0.000000000000000e0 0.000000000000000e0
0.000000000000000e0 0.000000000000000e0 0.000000000000000e0 0.000000000000000e0
0.000000000000000e0 0.000000000000000e0 0.000000000000000e0 0.000000000000000e0
0.000000000000000e0 0.000000000000000e0 0.000000000000000e0 0.000000000000000e0
0.000000000000000e0 0.000000000000000e0 0.000000000000000e0 0.000000000000000e0
0.000000000000000e0 0.000000000000000e0 0.000000000000000e0 0.000000000000000e0
0.000000000000000e0 0.000000000000000e0 0.000000000000000e0 0.000000000000000e0
0.000000000000000e0 0.000000000000000e0 0.000000000000000e0 0.000000000000000e0
0.000000000000000e0 0.000000000000000e0 0.000000000000000e0 0.000000000000000e0
0.000000000000000e0 0.000000000000000e0 0.000000000000000e0 0.000000000000000e0
0.000000000000000e0 0.000000000000000e0 0.000000000000000e0 0.000000000000000e0
0.000000000000000e0 0.000000000000000e0 0.000000000000000e0 0.000000000000000e0
0.000000000000000e0 0.000000000000000e0 0.000000000000000e0 0.000000000000000e0
0.000000000000000e0 0.000000000000000e0 0.000000000000000e0 0.000000000000000e0
0.000000000000000e0 0.000000000000000e0 0.000000000000000e0 0.000000000000000e0
0.000000000000000e0 0.000000000000000e0 0.000000000000000e0 0.000000000000000e0
0.000000000000000e0 0.000000000000000e0 0.000000000000000e0 0.000000000000000e0
0.000000000000000e0 0.000000000000000e0 0.000000000000000e0 0.000000000000000e0
0.000000000000000e0 0.000000000000000e0 0.000000000000000e0 0.000000000000000e0
0.000000000000000e0 0.000000000000000e0 0.000000000000000e0 0.000000000000000e0
0.000000000000000e0 0.000000000000000e0 0.000000000000000e0 0.000000000000000e0
0.000000000000000e0 0.000000000000000e0 0.000000000000000e0 0.000000000000000e0
0.000000000000000e0 0.000000000000000e0 0.000000000000000e0 0.000000000000000e0
0.000000000000000e0 0.000000000000000e0 0.000000000000000e0 0.000000000000000e0
0.000000000000000e0 0.000000000000000e0 0.000000000000000e0 0.000000000000000e0
0.000000000000000e0 0.000000000000000e0 0.000000000000000e0 0.000000000000000e0
0.000000000000000e0 0.000000000000000e0 0.000000000000000e0 0.000000000000000e0
0.000000000000000e0 0.000000000000000e0 0.000000000000000e0 0.000000000000000e0
0.000000000000000e0 0.000000000000000e0 0.000000000000000e0 0.000000000000000e0
0.000000000000000e0 0.000000000000000e0 0.000000000000000e0 0.000000000000000e0
0.000000000000000e0 0.000000000000000e0 0.000000000000000e0 0.000000000000000e0
0.000000000000000e0 0.000000000000000e0 0.000000000000000e0 0.000000000000000e0
0.000000000000000e0 0.000000000000000e0 0.000000000000000e0 0.000000000000000e0
0.000000000000000e0 0.000000000000000e0 0.000000000000000e0 0.000000000000000e0
0.000000000000000e0 0.000000000000000e0 0.000000000000000e0 0.000000000000000e0
0.000000000000000e0 0.000000000000000e0 0.000000000000000e0 0.000000000000000e0
0.000000000000000e0 0.000000000000000e0 0.000000000000000e0 0.000000000000000e0
0.000000000000000e0
</PP_BETA.4>
<PP_DIJ>
7.486210960060000e-1 1.884321484270000e0 0.000000000000000e0 0.000000000000000e0
1.884321484270000e0 6.663404464770000e-1 0.000000000000000e0 0.000000000000000e0
0.000000000000000e0 0.000000000000000e0 1.042856991020000e0 8.363064876810000e-1
0.000000000000000e0 0.000000000000000e0 8.363064876810000e-1 6.387504869040001e-1
</PP_DIJ>
<PP_AUGMENTATION q_with_l="false" nqf="0" nqlc="5">
<PP_Q>
-2.030739233410000e-1 3.472238600600000e-1 0.000000000000000e0 0.000000000000000e0
3.472238600600000e-1 1.768935159610000e-1 0.000000000000000e0 0.000000000000000e0
0.000000000000000e0 0.000000000000000e0 1.652457286780000e-1 1.141878522030000e-1
0.000000000000000e0 0.000000000000000e0 1.141878522030000e-1 7.957281839900000e-2
</PP_Q>
<PP_QIJ.1.1 first_index="1" second_index="1" composite_index="1">
-5.804794769270001e-8 -5.951743840260000e-8 -6.102412944260001e-8 -6.256896254350002e-8
-6.415290327590000e-8 -6.577694165390001e-8 -6.744209275400001e-8 -6.914939734959997e-8
-7.089992256100000e-8 -7.269476252320000e-8 -7.453503906900000e-8 -7.642190243080000e-8
-7.835653195910000e-8 -8.034013685969999e-8 -8.237395694979998e-8 -8.445926343250003e-8
-8.659735969170001e-8 -8.878958210650001e-8 -9.103730088650000e-8 -9.334192092839999e-8
-9.570488269419998e-8 -9.812766311090000e-8 -1.006117764940000e-7 -1.031587754960000e-7
-1.057702520710000e-7 -1.084478384770000e-7 -1.111932082920000e-7 -1.140080774600000e-7
-1.168942053640000e-7 -1.198533959280000e-7 -1.228874987410000e-7 -1.259984102140000e-7
-1.291880747670000e-7 -1.324584860430000e-7 -1.358116881540000e-7 -1.392497769580000e-7
-1.427749013720000e-7 -1.463892647100000e-7 -1.500951260670000e-7 -1.538948017240000e-7
-1.577906666000000e-7 -1.617851557350000e-7 -1.658807658130000e-7 -1.700800567210000e-7
-1.743856531500000e-7 -1.788002462360000e-7 -1.833265952390000e-7 -1.879675292730000e-7
-1.927259490690000e-7 -1.976048287920001e-7 -2.026072178960000e-7 -2.077362430350001e-7
-2.129951100120000e-7 -2.183871057860000e-7 -2.239156005270000e-7 -2.295840497179999e-7
-2.353959963210000e-7 -2.413550729880000e-7 -2.474650043280000e-7 -2.537296092440001e-7
-2.601528033129999e-7 -2.667386012320001e-7 -2.734911193349999e-7 -2.804145781590000e-7
-2.875133050830000e-7 -2.947917370370000e-7 -3.022544232700000e-7 -3.099060281949999e-7
-3.177513343070000e-7 -3.257952451690000e-7 -3.340427884770000e-7 -3.424991192060001e-7
-3.511695228260000e-7 -3.600594186119999e-7 -3.691743630280000e-7 -3.785200531980000e-7
-3.881023304700000e-7 -3.979271840670000e-7 -4.080007548280000e-7 -4.183293390499999e-7
-4.289193924179999e-7 -4.397775340440001e-7 -4.509105506040001e-7 -4.623254005779999e-7
-4.740292186009999e-7 -4.860293199200000e-7 -4.983332049690000e-7 -5.109485640560001e-7
-5.238832821679999e-7 -5.371454439010000e-7 -5.507433385139999e-7 -5.646854651070001e-7
-5.789805379350000e-7 -5.936374918569999e-7 -6.086654879140000e-7 -6.240739190610000e-7
-6.398724160370000e-7 -6.560708533810001e-7 -6.726793556060001e-7 -6.897083035289999e-7
-7.071683407539999e-7 -7.250703803310000e-7 -7.434256115730000e-7 -7.622455070479999e-7
-7.815418297529999e-7 -8.013266404670000e-7 -8.216123052850000e-7 -8.424115033500003e-7
-8.637372347749999e-7 -8.856028287750000e-7 -9.080219519889999e-7 -9.310086170280002e-7
-9.545771912319999e-7 -9.787424056479999e-7 -1.003519364240000e-6 -1.028923553330000e-6
-1.054970851260000e-6 -1.081677538360000e-6 -1.109060307070000e-6 -1.137136272400000e-6
-1.165922982650000e-6 -1.195438430310000e-6 -1.225701063390000e-6 -1.256729796890000e-6
-1.288544024630000e-6 -1.321163631410000e-6 -1.354609005390000e-6 -1.388901050860000e-6
-1.424061201300000e-6 -1.460111432770000e-6 -1.497074277660000e-6 -1.534972838760000e-6
-1.573830803690000e-6 -1.613672459750000e-6 -1.654522709030000e-6 -1.696407084030000e-6
-1.739351763620000e-6 -1.783383589340000e-6 -1.828530082260000e-6 -1.874819460110000e-6
-1.922280654950000e-6 -1.970943331270000e-6 -2.020837904480000e-6 -2.071995559960000e-6
-2.124448272550000e-6 -2.178228826510000e-6 -2.233370836040000e-6 -2.289908766240000e-6
-2.347877954730000e-6 -2.407314633640000e-6 -2.468255952360000e-6 -2.530740000650000e-6
-2.594805832540001e-6 -2.660493490670000e-6 -2.727844031360001e-6 -2.796899550250000e-6
-2.867703208619999e-6 -2.940299260349999e-6 -3.014733079599999e-6 -3.091051189130000e-6
-3.169301289440000e-6 -3.249532288520001e-6 -3.331794332439999e-6 -3.416138836720000e-6
-3.502618518400000e-6 -3.591287429049999e-6 -3.682200988510000e-6 -3.775416019559999e-6
-3.870990783390000e-6 -3.968985016060000e-6 -4.069459965800000e-6 -4.172478431290000e-6
-4.278104800940000e-6 -4.386405093100000e-6 -4.497446997310000e-6 -4.611299916649999e-6
-4.728035011049999e-6 -4.847725241849999e-6 -4.970445417300001e-6 -5.096272239389999e-6
-5.225284351749999e-6 -5.357562388800002e-6 -5.493189026140000e-6 -5.632249032250001e-6
-5.774829321429999e-6 -5.921019008140000e-6 -6.070909462679999e-6 -6.224594368289999e-6
-6.382169779700000e-6 -6.543734183190000e-6 -6.709388558070001e-6 -6.879236439860000e-6
-7.053383984939999e-6 -7.231940036919999e-6 -7.415016194649999e-6 -7.602726881959999e-6
-7.795189419170000e-6 -7.992524096400000e-6 -8.194854248770000e-6 -8.402306333430001e-6
-8.615010008620001e-6 -8.833098214680001e-6 -9.056707257119999e-6 -9.285976891830000e-6
-9.521050412379999e-6 -9.762074739580001e-6 -1.000920051330000e-5 -1.026258218650000e-5
-1.052237812210000e-5 -1.078875069130000e-5 -1.106186637570000e-5 -1.134189587100000e-5
-1.162901419370000e-5 -1.192340079040000e-5 -1.222523965020000e-5 -1.253471941920000e-5
-1.285203351890000e-5 -1.317738026680000e-5 -1.351096300020000e-5 -1.385299020350000e-5
-1.420367563840000e-5 -1.456323847730000e-5 -1.493190344040000e-5 -1.530990093630000e-5
-1.569746720540000e-5 -1.609484446810000e-5 -1.650228107600000e-5 -1.692003166660000e-5
-1.734835732320000e-5 -1.778752573730000e-5 -1.823781137620000e-5 -1.869949565470000e-5
-1.917286711020000e-5 -1.965822158380001e-5 -2.015586240459999e-5 -2.066610057940000e-5
-2.118925498700000e-5 -2.172565257710000e-5 -2.227562857540000e-5 -2.283952669190001e-5
-2.341769933650000e-5 -2.401050783890000e-5 -2.461832267400000e-5 -2.524152369369999e-5
-2.588050036429999e-5 -2.653565200940000e-5 -2.720738805960000e-5 -2.789612830799999e-5
-2.860230317300000e-5 -2.932635396630000e-5 -3.006873316949999e-5 -3.082990471590001e-5
-3.161034428080000e-5 -3.241053957840001e-5 -3.323099066660000e-5 -3.407221025910001e-5
-3.493472404560000e-5 -3.581907102040000e-5 -3.672580381890000e-5 -3.765548906259999e-5
-3.860870771320001e-5 -3.958605543520000e-5 -4.058814296800000e-5 -4.161559650730000e-5
-4.266905809620000e-5 -4.374918602579999e-5 -4.485665524680000e-5 -4.599215779040000e-5
-4.715640320089999e-5 -4.835011897829999e-5 -4.957405103300000e-5 -5.082896415090000e-5
-5.211564247150000e-5 -5.343488997710000e-5 -5.478753099490001e-5 -5.617441071150000e-5
-5.759639570060000e-5 -5.905437446380001e-5 -6.054925798549999e-5 -6.208198030130001e-5
-6.365349908130000e-5 -6.526479622740000e-5 -6.691687848670000e-5 -6.861077807929999e-5
-7.034755334279998e-5 -7.212828939300000e-5 -7.395409880039999e-5 -7.582612228520000e-5
-7.774552942870000e-5 -7.971351940310000e-5 -8.173132171990000e-5 -8.380019699689999e-5
-8.592143774469999e-5 -8.809636917310000e-5 -9.032635001770000e-5 -9.261277338779999e-5
-9.495706763480001e-5 -9.736069724380002e-5 -9.982516374649999e-5 -1.023520066580000e-4
-1.049428044360000e-4 -1.075991754680000e-4 -1.103227790750000e-4 -1.131153165530000e-4
-1.159785322290000e-4 -1.189142145470000e-4 -1.219241971910000e-4 -1.250103602180000e-4
-1.281746312380000e-4 -1.314189866100000e-4 -1.347454526770000e-4 -1.381561070280000e-4
-1.416530797910000e-4 -1.452385549620000e-4 -1.489147717680000e-4 -1.526840260550000e-4
-1.565486717270000e-4 -1.605111222050000e-4 -1.645738519340000e-4 -1.687393979250000e-4
-1.730103613300000e-4 -1.773894090670000e-4 -1.818792754780000e-4 -1.864827640310000e-4
-1.912027490650000e-4 -1.960421775820000e-4 -2.010040710770000e-4 -2.060915274200000e-4
-2.113077227860000e-4 -2.166559136270000e-4 -2.221394386990000e-4 -2.277617211410000e-4
-2.335262706030000e-4 -2.394366854240000e-4 -2.454966548780000e-4 -2.517099614590000e-4
-2.580804832380000e-4 -2.646121962710000e-4 -2.713091770700000e-4 -2.781756051360000e-4
-2.852157655550000e-4 -2.924340516610000e-4 -2.998349677630000e-4 -3.074231319450000e-4
-3.152032789270000e-4 -3.231802630100000e-4 -3.313590610870000e-4 -3.397447757310000e-4
-3.483426383579999e-4 -3.571580124780000e-4 -3.661963970140000e-4 -3.754634297190000e-4
-3.849648906650000e-4 -3.947067058290000e-4 -4.046949507630000e-4 -4.149358543589999e-4
-4.254358027069999e-4 -4.362013430480000e-4 -4.472391878310001e-4 -4.585562188640000e-4
-4.701594915730000e-4 -4.820562393670000e-4 -4.942538781140000e-4 -5.067600107230001e-4
-5.195824318420000e-4 -5.327291326819999e-4 -5.462083059440000e-4 -5.600283508890000e-4
-5.741978785130000e-4 -5.887257168710001e-4 -6.036209165190001e-4 -6.188927560970000e-4
-6.345507480500000e-4 -6.506046444940000e-4 -6.670644432200000e-4 -6.839403938560000e-4
-7.012430041759999e-4 -7.189830465669999e-4 -7.371715646580000e-4 -7.558198801100000e-4
-7.749395995730000e-4 -7.945426218250001e-4 -8.146411450730000e-4 -8.352476744430001e-4
-8.563750296590001e-4 -8.780363528960001e-4 -9.002451168460002e-4 -9.230151329660000e-4
-9.463605599430000e-4 -9.702959123540001e-4 -9.948360695490001e-4 -1.019996284750000e-3
-1.045792194370000e-3 -1.072239827550000e-3 -1.099355615990000e-3 -1.127156403890000e-3
-1.155659458310000e-3 -1.184882479610000e-3 -1.214843612290000e-3 -1.245561455970000e-3
-1.277055076770000e-3 -1.309344018800000e-3 -1.342448316130000e-3 -1.376388504850000e-3
-1.411185635580000e-3 -1.446861286190000e-3 -1.483437574870000e-3 -1.520937173500000e-3
-1.559383321360000e-3 -1.598799839130000e-3 -1.639211143280000e-3 -1.680642260770000e-3
-1.723118844150000e-3 -1.766667186920000e-3 -1.811314239360000e-3 -1.857087624750000e-3
-1.904015655830000e-3 -1.952127351850000e-3 -2.001452455880000e-3 -2.052021452580000e-3
-2.103865586420000e-3 -2.157016880260000e-3 -2.211508154470000e-3 -2.267373046400000e-3
-2.324646030370000e-3 -2.383362438100000e-3 -2.443558479640000e-3 -2.505271264810000e-3
-2.568538825040000e-3 -2.633400135860000e-3 -2.699895139820000e-3 -2.768064769940000e-3
-2.837950973770000e-3 -2.909596737930000e-3 -2.983046113240000e-3 -3.058344240470000e-3
-3.135537376620000e-3 -3.214672921810000e-3 -3.295799446800001e-3 -3.378966721140000e-3
-3.464225741930000e-3 -3.551628763230000e-3 -3.641229326170000e-3 -3.733082289670000e-3
-3.827243861890000e-3 -3.923771632380001e-3 -4.022724604920000e-3 -4.124163231049999e-3
-4.228149444430001e-3 -4.334746695870001e-3 -4.444019989150000e-3 -4.556035917579999e-3
-4.670862701420000e-3 -4.788570226030000e-3 -4.909230080890000e-3 -5.032915599340000e-3
-5.159701899340000e-3 -5.289665924890000e-3 -5.422886488430000e-3 -5.559444314089999e-3
-5.699422081809999e-3 -5.842904472370001e-3 -5.989978213339999e-3 -6.140732125960000e-3
-6.295257172920000e-3 -6.453646507089999e-3 -6.615995521279999e-3 -6.782401898840000e-3
-6.952965665380001e-3 -7.127789241309999e-3 -7.306977495520001e-3 -7.490637800010001e-3
-7.678880085469999e-3 -7.871816897980000e-3 -8.069563456620001e-3 -8.272237712219999e-3
-8.479960407040000e-3 -8.692855135560000e-3 -8.911048406230000e-3 -9.134669704309999e-3
-9.363851555760000e-3 -9.598729592090001e-3 -9.839442616290000e-3 -1.008613266980000e-2
-1.033894510050000e-2 -1.059802863150000e-2 -1.086353543150000e-2 -1.113562118540000e-2
-1.141444516630000e-2 -1.170017030860000e-2 -1.199296328150000e-2 -1.229299456400000e-2
-1.260043852070000e-2 -1.291547347770000e-2 -1.323828180060000e-2 -1.356904997220000e-2
-1.390796867150000e-2 -1.425523285360000e-2 -1.461104182950000e-2 -1.497559934710000e-2
-1.534911367330000e-2 -1.573179767510000e-2 -1.612386890260000e-2 -1.652554967160000e-2
-1.693706714690000e-2 -1.735865342510000e-2 -1.779054561890000e-2 -1.823298593990000e-2
-1.868622178230000e-2 -1.915050580590000e-2 -1.962609601950000e-2 -2.011325586300000e-2
-2.061225428980000e-2 -2.112336584760000e-2 -2.164687075900000e-2 -2.218305500130000e-2
-2.273221038390000e-2 -2.329463462610000e-2 -2.387063143150000e-2 -2.446051056210000e-2
-2.506458790930000e-2 -2.568318556330000e-2 -2.631663187980000e-2 -2.696526154380000e-2
-2.762941563050000e-2 -2.830944166290000e-2 -2.900569366510000e-2 -2.971853221260000e-2
-3.044832447730000e-2 -3.119544426810000e-2 -3.196027206640000e-2 -3.274319505580000e-2
-3.354460714570000e-2 -3.436490898870001e-2 -3.520450799060000e-2 -3.606381831310000e-2
-3.694326086790000e-2 -3.784326330300000e-2 -3.876425997860000e-2 -3.970669193370000e-2
-4.067100684180000e-2 -4.165765895520001e-2 -4.266710903740000e-2 -4.369982428190000e-2
-4.475627821770000e-2 -4.583695060029999e-2 -4.694232728650000e-2 -4.807290009290000e-2
-4.922916663690000e-2 -5.041163015900000e-2 -5.162079932490000e-2 -5.285718800720000e-2
-5.412131504469999e-2 -5.541370397809999e-2 -5.673488276070000e-2 -5.808538344360000e-2
-5.946574183210000e-2 -6.087649711420000e-2 -6.231819145689999e-2 -6.379136957120001e-2
-6.529657824199999e-2 -6.683436582250001e-2 -6.840528169060001e-2 -7.000987566529999e-2
-7.164869738129999e-2 -7.332229561940000e-2 -7.503121759150000e-2 -7.677600817600000e-2
-7.855720910330000e-2 -8.037535808790000e-2 -8.223098790449999e-2 -8.412462540609999e-2
-8.605679048130000e-2 -8.802799494719999e-2 -9.003874137690000e-2 -9.208952185630000e-2
-9.418081666959999e-2 -9.631309290890000e-2 -9.848680300520002e-2 -1.007023831780000e-1
-1.029602517990000e-1 -1.052608076710000e-1 -1.076044282100000e-1 -1.099914675340000e-1
-1.124222544600000e-1 -1.148970903900000e-1 -1.174162470960000e-1 -1.199799644000000e-1
-1.225884477330000e-1 -1.252418655930000e-1 -1.279403468710000e-1 -1.306839780620000e-1
-1.334728003530000e-1 -1.363068065780000e-1 -1.391859380500000e-1 -1.421100812560000e-1
-1.450790644160000e-1 -1.480926539080000e-1 -1.511505505530000e-1 -1.542523857630000e-1
-1.573977175420000e-1 -1.605860263490000e-1 -1.638167108240000e-1 -1.670890833650000e-1
-1.704023655700000e-1 -1.737556835450000e-1 -1.771480630700000e-1 -1.805784246420000e-1
-1.840455783830000e-1 -1.875482188400000e-1 -1.910849196580000e-1 -1.946541281580000e-1
-1.982541598140000e-1 -2.018831926490000e-1 -2.055392615590000e-1 -2.092202525750000e-1
-2.129238970910000e-1 -2.166477660670000e-1 -2.203892642290000e-1 -2.241456242920000e-1
-2.279139012300000e-1 -2.316909666200000e-1 -2.354735030930000e-1 -2.392579989250000e-1
-2.430407427980000e-1 -2.468178187950000e-1 -2.505851016320000e-1 -2.543382522200000e-1
-2.580727135700000e-1 -2.617837071200000e-1 -2.654662295350000e-1 -2.691150500320000e-1
-2.727247083200000e-1 -2.762895132040000e-1 -2.798035419400000e-1 -2.832606404150000e-1
-2.866544242420000e-1 -2.899782808450000e-1 -2.932253726440000e-1 -2.963886414070000e-1
-2.994608138990000e-1 -3.024344089060000e-1 -3.053017457370000e-1 -3.080549543290000e-1
-3.106859870400000e-1 -3.131866322410000e-1 -3.155485298300000e-1 -3.177631887440000e-1
-3.198220066010000e-1 -3.217162915460000e-1 -3.234372864110000e-1 -3.249761952700000e-1
-3.263242124600000e-1 -3.274725541470000e-1 -3.284124924820000e-1 -3.291353923920000e-1
-3.296327510270000e-1 -3.298962398670000e-1 -3.299177494580000e-1 -3.296894367560000e-1
-3.292037749730000e-1 -3.284536058500000e-1 -3.274321941940000e-1 -3.261332845120000e-1
-3.245511595260000e-1 -3.226807002960000e-1 -3.205174476520000e-1 -3.180576645720000e-1
-3.152983990960000e-1 -3.122375473070000e-1 -3.088739158790000e-1 -3.052072835850000e-1
-3.012384611620000e-1 -2.969693488360000e-1 -2.924029907480000e-1 -2.875436255240000e-1
-2.823967321050000e-1 -2.769690699860000e-1 -2.712687129280000e-1 -2.653050751900000e-1
-2.590889293350000e-1 -2.526324146090000e-1 -2.459490349560000e-1 -2.390536456990000e-1
-2.319624280110000e-1 -2.246928503090000e-1 -2.172636158260000e-1 -2.096945956880000e-1
-2.020067469770000e-1 -1.942220153780000e-1 -1.863632222410000e-1 -1.784539360190000e-1
-1.705183283540000e-1 -1.625810152710000e-1 -1.546668842670000e-1 -1.468009083520000e-1
-1.390079484390000e-1 -1.313125458040000e-1 -1.237387066770000e-1 -1.163096813840000e-1
-1.090477407880000e-1 -1.019739531210000e-1 -9.510796459869999e-2 -8.846778750940000e-2
-8.206959968610001e-2 -7.592755949450001e-2 -7.005364058160001e-2 -6.445749070530001e-2
-5.914631895180000e-2 -5.412481554410000e-2 -4.939510825360000e-2 -4.495675913020000e-2
-4.080680486940000e-2 -3.693984363340000e-2 -3.334817053900000e-2 -3.002196331790000e-2
-2.694951886290000e-2 -2.411754048750000e-2 -2.151147477720000e-2 -1.911589589040000e-2
-1.691493410610000e-2 -1.489274430920000e-2 -1.303400898050000e-2 -1.132446910490000e-2
-9.751475251200002e-3 -8.304549893909998e-3 -6.975950842650001e-3 -5.761224404520000e-3
-4.659735609080000e-3 -3.675161457820000e-3 -2.815931697020000e-3 -2.091248660920000e-3
-1.496160417980000e-3 -1.020929128810000e-3 -6.547871990600001e-4 -3.858697710990000e-4
-2.011505537040000e-4 -8.638284802410002e-5 -2.604785371580001e-5 -3.312585496350000e-6
1.110223024630000e-16 0.000000000000000e0 0.000000000000000e0 0.000000000000000e0
0.000000000000000e0 0.000000000000000e0 0.000000000000000e0 0.000000000000000e0
0.000000000000000e0 0.000000000000000e0 0.000000000000000e0 0.000000000000000e0
0.000000000000000e0 0.000000000000000e0 0.000000000000000e0 0.000000000000000e0
0.000000000000000e0 0.000000000000000e0 0.000000000000000e0 0.000000000000000e0
0.000000000000000e0 0.000000000000000e0 0.000000000000000e0 0.000000000000000e0
0.000000000000000e0 0.000000000000000e0 0.000000000000000e0 0.000000000000000e0
0.000000000000000e0 0.000000000000000e0 0.000000000000000e0 0.000000000000000e0
0.000000000000000e0 0.000000000000000e0 0.000000000000000e0 0.000000000000000e0
0.000000000000000e0 0.000000000000000e0 0.000000000000000e0 0.000000000000000e0
0.000000000000000e0 0.000000000000000e0 0.000000000000000e0 0.000000000000000e0
0.000000000000000e0 0.000000000000000e0 0.000000000000000e0 0.000000000000000e0
0.000000000000000e0 0.000000000000000e0 0.000000000000000e0 0.000000000000000e0
0.000000000000000e0 0.000000000000000e0 0.000000000000000e0 0.000000000000000e0
0.000000000000000e0 0.000000000000000e0 0.000000000000000e0 0.000000000000000e0
0.000000000000000e0 0.000000000000000e0 0.000000000000000e0 0.000000000000000e0
0.000000000000000e0 0.000000000000000e0 0.000000000000000e0 0.000000000000000e0
0.000000000000000e0 0.000000000000000e0 0.000000000000000e0 0.000000000000000e0
0.000000000000000e0 0.000000000000000e0 0.000000000000000e0 0.000000000000000e0
0.000000000000000e0 0.000000000000000e0 0.000000000000000e0 0.000000000000000e0
0.000000000000000e0 0.000000000000000e0 0.000000000000000e0 0.000000000000000e0
0.000000000000000e0 0.000000000000000e0 0.000000000000000e0 0.000000000000000e0
0.000000000000000e0 0.000000000000000e0 0.000000000000000e0 0.000000000000000e0
0.000000000000000e0 0.000000000000000e0 0.000000000000000e0 0.000000000000000e0
0.000000000000000e0 0.000000000000000e0 0.000000000000000e0 0.000000000000000e0
0.000000000000000e0 0.000000000000000e0 0.000000000000000e0 0.000000000000000e0
0.000000000000000e0 0.000000000000000e0 0.000000000000000e0 0.000000000000000e0
0.000000000000000e0 0.000000000000000e0 0.000000000000000e0 0.000000000000000e0
0.000000000000000e0 0.000000000000000e0 0.000000000000000e0 0.000000000000000e0
0.000000000000000e0 0.000000000000000e0 0.000000000000000e0 0.000000000000000e0
0.000000000000000e0 0.000000000000000e0 0.000000000000000e0 0.000000000000000e0
0.000000000000000e0 0.000000000000000e0 0.000000000000000e0 0.000000000000000e0
0.000000000000000e0 0.000000000000000e0 0.000000000000000e0 0.000000000000000e0
0.000000000000000e0 0.000000000000000e0 0.000000000000000e0 0.000000000000000e0
0.000000000000000e0 0.000000000000000e0 0.000000000000000e0 0.000000000000000e0
0.000000000000000e0 0.000000000000000e0 0.000000000000000e0 0.000000000000000e0
0.000000000000000e0 0.000000000000000e0 0.000000000000000e0 0.000000000000000e0
0.000000000000000e0 0.000000000000000e0 0.000000000000000e0 0.000000000000000e0
0.000000000000000e0 0.000000000000000e0 0.000000000000000e0 0.000000000000000e0
0.000000000000000e0 0.000000000000000e0 0.000000000000000e0 0.000000000000000e0
0.000000000000000e0 0.000000000000000e0 0.000000000000000e0 0.000000000000000e0
0.000000000000000e0 0.000000000000000e0 0.000000000000000e0 0.000000000000000e0
0.000000000000000e0 0.000000000000000e0 0.000000000000000e0 0.000000000000000e0
0.000000000000000e0 0.000000000000000e0 0.000000000000000e0 0.000000000000000e0
0.000000000000000e0 0.000000000000000e0 0.000000000000000e0 0.000000000000000e0
0.000000000000000e0 0.000000000000000e0 0.000000000000000e0 0.000000000000000e0
0.000000000000000e0 0.000000000000000e0 0.000000000000000e0 0.000000000000000e0
0.000000000000000e0 0.000000000000000e0 0.000000000000000e0 0.000000000000000e0
0.000000000000000e0 0.000000000000000e0 0.000000000000000e0 0.000000000000000e0
0.000000000000000e0 0.000000000000000e0 0.000000000000000e0 0.000000000000000e0
0.000000000000000e0 0.000000000000000e0 0.000000000000000e0 0.000000000000000e0
0.000000000000000e0 0.000000000000000e0 0.000000000000000e0 0.000000000000000e0
0.000000000000000e0 0.000000000000000e0 0.000000000000000e0 0.000000000000000e0
0.000000000000000e0 0.000000000000000e0 0.000000000000000e0 0.000000000000000e0
0.000000000000000e0 0.000000000000000e0 0.000000000000000e0 0.000000000000000e0
0.000000000000000e0 0.000000000000000e0 0.000000000000000e0 0.000000000000000e0
0.000000000000000e0 0.000000000000000e0 0.000000000000000e0 0.000000000000000e0
0.000000000000000e0 0.000000000000000e0 0.000000000000000e0 0.000000000000000e0
0.000000000000000e0 0.000000000000000e0 0.000000000000000e0 0.000000000000000e0
0.000000000000000e0 0.000000000000000e0 0.000000000000000e0 0.000000000000000e0
0.000000000000000e0 0.000000000000000e0 0.000000000000000e0 0.000000000000000e0
0.000000000000000e0 0.000000000000000e0 0.000000000000000e0 0.000000000000000e0
0.000000000000000e0 0.000000000000000e0 0.000000000000000e0 0.000000000000000e0
0.000000000000000e0 0.000000000000000e0 0.000000000000000e0 0.000000000000000e0
0.000000000000000e0 0.000000000000000e0 0.000000000000000e0 0.000000000000000e0
0.000000000000000e0 0.000000000000000e0 0.000000000000000e0 0.000000000000000e0
0.000000000000000e0 0.000000000000000e0 0.000000000000000e0 0.000000000000000e0
0.000000000000000e0 0.000000000000000e0 0.000000000000000e0 0.000000000000000e0
0.000000000000000e0 0.000000000000000e0 0.000000000000000e0 0.000000000000000e0
0.000000000000000e0 0.000000000000000e0 0.000000000000000e0 0.000000000000000e0
0.000000000000000e0 0.000000000000000e0 0.000000000000000e0 0.000000000000000e0
0.000000000000000e0 0.000000000000000e0 0.000000000000000e0 0.000000000000000e0
0.000000000000000e0 0.000000000000000e0 0.000000000000000e0 0.000000000000000e0
0.000000000000000e0 0.000000000000000e0 0.000000000000000e0 0.000000000000000e0
0.000000000000000e0 0.000000000000000e0 0.000000000000000e0 0.000000000000000e0
0.000000000000000e0 0.000000000000000e0 0.000000000000000e0 0.000000000000000e0
0.000000000000000e0 0.000000000000000e0 0.000000000000000e0 0.000000000000000e0
0.000000000000000e0 0.000000000000000e0 0.000000000000000e0 0.000000000000000e0
0.000000000000000e0 0.000000000000000e0 0.000000000000000e0 0.000000000000000e0
0.000000000000000e0 0.000000000000000e0 0.000000000000000e0 0.000000000000000e0
0.000000000000000e0 0.000000000000000e0 0.000000000000000e0 0.000000000000000e0
0.000000000000000e0 0.000000000000000e0 0.000000000000000e0 0.000000000000000e0
0.000000000000000e0 0.000000000000000e0 0.000000000000000e0 0.000000000000000e0
0.000000000000000e0
</PP_QIJ.1.1>
<PP_QIJ.1.2 first_index="1" second_index="2" composite_index="2">
5.727103617550000e-8 5.872085936920000e-8 6.020738501230001e-8 6.173154223180001e-8
6.329428367559999e-8 6.489658610799999e-8 6.653945102019999e-8 6.822390525639999e-8
6.995100165540000e-8 7.172181970849999e-8 7.353746623489999e-8 7.539907607280001e-8
7.730781278900002e-8 7.926486940610001e-8 8.127146914830002e-8 8.332886620590001e-8
8.543834651899999e-8 8.760122858159999e-8 8.981886426550000e-8 9.209263966520000e-8
9.442397596450000e-8 9.681433032459999e-8 9.926519679489999e-8 1.017781072470000e-7
1.043546323310000e-7 1.069963824600000e-7 1.097050088140000e-7 1.124822043720000e-7
1.153297049730000e-7 1.182492903960000e-7 1.212427854790000e-7 1.243120612530000e-7
1.274590361150000e-7 1.306856770270000e-7 1.339940007460000e-7 1.373860750810000e-7
1.408640201900000e-7 1.444300099010000e-7 1.480862730750000e-7 1.518350949950000e-7
1.556788187970000e-7 1.596198469350000e-7 1.636606426790000e-7 1.678037316580000e-7
1.720517034380000e-7 1.764072131410000e-7 1.808729831010000e-7 1.854518045710000e-7
1.901465394640000e-7 1.949601221420000e-7 1.998955612510000e-7 2.049559416030000e-7
2.101444260990001e-7 2.154642577130000e-7 2.209187615120000e-7 2.265113467400000e-7
2.322455089450000e-7 2.381248321660000e-7 2.441529911710000e-7 2.503337537570000e-7
2.566709831030000e-7 2.631686401830000e-7 2.698307862460000e-7 2.766615853510000e-7
2.836653069700001e-7 2.908463286590000e-7 2.982091387900000e-7 3.057583393610000e-7
3.134986488679999e-7 3.214349052590000e-7 3.295720689530000e-7 3.379152259420000e-7
3.464695909749999e-7 3.552405108070000e-7 3.642334675519999e-7 3.734540821009999e-7
3.829081176389999e-7 3.926014832500001e-7 4.025402376030000e-7 4.127305927450000e-7
4.231789179820000e-7 4.338917438590000e-7 4.448757662440000e-7 4.561378505090001e-7
4.676850358269999e-7 4.795245395670000e-7 4.916637618060000e-7 5.041102899560000e-7
5.168719035060000e-7 5.299565788810002e-7 5.433724944340000e-7 5.571280355520001e-7
5.712317998980000e-7 5.856926027889999e-7 6.005194827010001e-7 6.157217069200001e-7
6.313087773359999e-7 6.472904363790000e-7 6.636766731110000e-7 6.804777294690001e-7
6.977041066650001e-7 7.153665717499999e-7 7.334761643460002e-7 7.520442035440000e-7
7.710822949800001e-7 7.906023380850000e-7 8.106165335299998e-7 8.311373908469999e-7
8.521777362450001e-7 8.737507206340000e-7 8.958698278409999e-7 9.185488830350000e-7
9.418020613750000e-7 9.656438968620000e-7 9.900892914320000e-7 1.015153524260000e-6
1.040852261320000e-6 1.067201565180000e-6 1.094217905010000e-6 1.121918166930000e-6
1.150319664500000e-6 1.179440149620000e-6 1.209297823530000e-6 1.239911348290000e-6
1.271299858350000e-6 1.303482972570000e-6 1.336480806460000e-6 1.370313984780000e-6
1.405003654360000e-6 1.440571497420000e-6 1.477039745020000e-6 1.514431191050000e-6
1.552769206390000e-6 1.592077753569999e-6 1.632381401750000e-6 1.673705342050000e-6
1.716075403310000e-6 1.759518068220000e-6 1.804060489910000e-6 1.849730508860000e-6
1.896556670370000e-6 1.944568242360000e-6 1.993795233650000e-6 2.044268412760000e-6
2.096019327130000e-6 2.149080322800000e-6 2.203484564670000e-6 2.259266057220000e-6
2.316459665760001e-6 2.375101138210000e-6 2.435227127460001e-6 2.496875214280000e-6
2.560083930790000e-6 2.624892784570000e-6 2.691342283350000e-6 2.759473960299999e-6
2.829330400020000e-6 2.900955265139999e-6 2.974393323640001e-6 3.049690476780000e-6
3.126893787840000e-6 3.206051511500000e-6 3.287213124040000e-6 3.370429354220001e-6
3.455752215010000e-6 3.543235036110000e-6 3.632932497280000e-6 3.724900662480000e-6
3.819197014960001e-6 3.915880493170000e-6 4.015011527610000e-6 4.116652078560000e-6
4.220865674859999e-6 4.327717453600000e-6 4.437274200809999e-6 4.549604393250000e-6
4.664778241170001e-6 4.782867732200000e-6 4.903946676360000e-6 5.028090752200001e-6
5.155377554070000e-6 5.285886640670000e-6 5.419699584700001e-6 5.556900023939999e-6
5.697573713460001e-6 5.841808579230000e-6 5.989694773110000e-6 6.141324729169999e-6
6.296793221470001e-6 6.456197423300001e-6 6.619636967920000e-6 6.787214010830000e-6
6.959033293630000e-6 7.135202209460000e-6 7.315830870190000e-6 7.501032175169998e-6
7.690921881829999e-6 7.885618678060000e-6 8.085244256330002e-6 8.289923389830001e-6
8.499784010390002e-6 8.714957288490000e-6 8.935577715239999e-6 9.161783186399999e-6
9.393715088650000e-6 9.631518387890001e-6 9.875341719890002e-6 1.012533748320000e-5
1.038166193430000e-5 1.064447528550000e-5 1.091394180490000e-5 1.119022991890000e-5
1.147351231810000e-5 1.176396606440000e-5 1.206177270230000e-5 1.236711837210000e-5
1.268019392650000e-5 1.300119504930000e-5 1.333032237860000e-5 1.366778163130000e-5
1.401378373240000e-5 1.436854494650000e-5 1.473228701280000e-5 1.510523728430000e-5
1.548762886930000e-5 1.587970077720000e-5 1.628169806850000e-5 1.669387200690000e-5
1.711648021750000e-5 1.754978684699999e-5 1.799406272920000e-5 1.844958555400000e-5
1.891664004150000e-5 1.939551811930000e-5 1.988651910540000e-5 2.038994989530000e-5
2.090612515360000e-5 2.143536751070000e-5 2.197800776480000e-5 2.253438508820000e-5
2.310484723960001e-5 2.368975078150000e-5 2.428946130280000e-5 2.490435364770000e-5
2.553481214950000e-5 2.618123087140000e-5 2.684401385230000e-5 2.752357535970000e-5
2.822034014850000e-5 2.893474372670001e-5 2.966723262700000e-5 3.041826468680000e-5
3.118830933360000e-5 3.197784787900000e-5 3.278737381919999e-5 3.361739314340000e-5
3.446842465050000e-5 3.534100027290000e-5 3.623566540940000e-5 3.715297926580000e-5
3.809351520460000e-5 3.905786110320000e-5 4.004661972180000e-5 4.106040907960001e-5
4.209986284140000e-5 4.316563071380000e-5 4.425837885100001e-5 4.537879027130000e-5
4.652756528410001e-5 4.770542192780000e-5 4.891309641800000e-5 5.015134360850000e-5
5.142093746250000e-5 5.272267153640000e-5 5.405735947640000e-5 5.542583552640000e-5
5.682895504980000e-5 5.826759506390000e-5 5.974265478840000e-5 6.125505620720000e-5
6.280574464480000e-5 6.439568935710001e-5 6.602588413720001e-5 6.769734793670001e-5
6.941112550250001e-5 7.116828802970000e-5 7.296993383110001e-5 7.481718902399999e-5
7.671120823380001e-5 7.865317531550000e-5 8.064430409400000e-5 8.268583912240000e-5
8.477905646010001e-5 8.692526447030001e-5 8.912580463740001e-5 9.138205240590002e-5
9.369541803970000e-5 9.606734750370000e-5 9.849932336709999e-5 1.009928657300000e-4
1.035495331750000e-4 1.061709237370000e-4 1.088586759080000e-4 1.116144696540000e-4
1.144400274730000e-4 1.173371154630000e-4 1.203075444310000e-4 1.233531710230000e-4
1.264758988850000e-4 1.296776798510000e-4 1.329605151620000e-4 1.363264567210000e-4
1.397776083680000e-4 1.433161272010000e-4 1.469442249200000e-4 1.506641692100000e-4
1.544782851560000e-4 1.583889566980000e-4 1.623986281200000e-4 1.665098055740000e-4
1.707250586490000e-4 1.750470219740000e-4 1.794783968630000e-4 1.840219530050000e-4
1.886805301900000e-4 1.934570400850000e-4 1.983544680510000e-4 2.033758750100000e-4
2.085243993500000e-4 2.138032588910000e-4 2.192157528910000e-4 2.247652641050000e-4
2.304552608970000e-4 2.362892994060000e-4 2.422710257650000e-4 2.484041783740000e-4
2.546925902379999e-4 2.611401913520000e-4 2.677510111580000e-4 2.745291810580000e-4
2.814789369880000e-4 2.886046220610000e-4 2.959106892790000e-4 3.034017043050000e-4
3.110823483090000e-4 3.189574208930001e-4 3.270318430720000e-4 3.353106603490000e-4
3.437990458560000e-4 3.525023035750000e-4 3.614258716440000e-4 3.705753257410000e-4
3.799563825589999e-4 3.895749033610000e-4 3.994368976300000e-4 4.095485268060000e-4
4.199161081220000e-4 4.305461185310000e-4 4.414451987329999e-4 4.526201573030000e-4
4.640779749210000e-4 4.758258087130000e-4 4.878709966900000e-4 5.002210623080002e-4
5.128837191360001e-4 5.258668756420001e-4 5.391786400999999e-4 5.528273256120000e-4
5.668214552669999e-4 5.811697674150000e-4 5.958812210820000e-4 6.109650015140000e-4
6.264305258580000e-4 6.422874489899999e-4 6.585456694790000e-4 6.752153357030000e-4
6.923068521150001e-4 7.098308856660001e-4 7.277983723790000e-4 7.462205240940001e-4
7.651088353719999e-4 7.844750905760000e-4 8.043313711120000e-4 8.246900628640002e-4
8.455638638029999e-4 8.669657917760000e-4 8.889091924990000e-4 9.114077477310001e-4
9.344754836580000e-4 9.581267794740000e-4 9.823763761710001e-4 1.007239385550000e-3
1.032731299440000e-3 1.058867999130000e-3 1.085665765070000e-3 1.113141286770000e-3
1.141311672930000e-3 1.170194461850000e-3 1.199807632040000e-3 1.230169613150000e-3
1.261299297110000e-3 1.293216049550000e-3 1.325939721490000e-3 1.359490661330000e-3
1.393889727090000e-3 1.429158298960000e-3 1.465318292180000e-3 1.502392170130000e-3
1.540402957880000e-3 1.579374255900000e-3 1.619330254190000e-3 1.660295746730000e-3
1.702296146290000e-3 1.745357499500000e-3 1.789506502390000e-3 1.834770516220000e-3
1.881177583730000e-3 1.928756445720000e-3 1.977536558090000e-3 2.027548109190000e-3
2.078822037700000e-3 2.131390050800000e-3 2.185284642890000e-3 2.240539114650000e-3
2.297187592630000e-3 2.355265049270000e-3 2.414807323380000e-3 2.475851141140000e-3
2.538434137599999e-3 2.602594878670001e-3 2.668372883660000e-3 2.735808648339999e-3
2.804943668590000e-3 2.875820464620000e-3 2.948482605730000e-3 3.022974735780000e-3
3.099342599140000e-3 3.177633067440000e-3 3.257894166860000e-3 3.340175106170000e-3
3.424526305470000e-3 3.510999425630001e-3 3.599647398470001e-3 3.690524457750000e-3
3.783686170960000e-3 3.879189471860000e-3 3.977092693940000e-3 4.077455604700000e-3
4.180339440880000e-3 4.285806944570000e-3 4.393922400290000e-3 4.504751673040000e-3
4.618362247389999e-3 4.734823267560000e-3 4.854205578629999e-3 4.976581768750000e-3
5.102026212590001e-3 5.230615115830000e-3 5.362426560859999e-3 5.497540553689999e-3
5.636039072100001e-3 5.778006114910000e-3 5.923527752660000e-3 6.072692179400000e-3
6.225589765920001e-3 6.382313114060000e-3 6.542957112500001e-3 6.707618993629999e-3
6.876398391860000e-3 7.049397403019999e-3 7.226720645020000e-3 7.408475319759999e-3
7.594771276039999e-3 7.785721073640000e-3 7.981440048370001e-3 8.182046378090002e-3
8.387661149550000e-3 8.598408426010000e-3 8.814415315480002e-3 9.035812039520001e-3
9.262732002419998e-3 9.495311860670000e-3 9.733691592510000e-3 9.978014567470000e-3
1.022842761570000e-2 1.048508109700000e-2 1.074812896910000e-2 1.101772885570000e-2
1.129404211340000e-2 1.157723389720000e-2 1.186747322610000e-2 1.216493304640000e-2
1.246979029410000e-2 1.278222595610000e-2 1.310242513040000e-2 1.343057708410000e-2
1.376687531150000e-2 1.411151759040000e-2 1.446470603840000e-2 1.482664716810000e-2
1.519755194370000e-2 1.557763583680000e-2 1.596711888490000e-2 1.636622575120000e-2
1.677518578750000e-2 1.719423310140000e-2 1.762360662800000e-2 1.806355020810000e-2
1.851431267350000e-2 1.897614794170000e-2 1.944931511940000e-2 1.993407861830000e-2
2.043070828320000e-2 2.093947953360000e-2 2.146067352070000e-2 2.199457729900000e-2
2.254148401510000e-2 2.310169311240000e-2 2.367551055190000e-2 2.426324904880000e-2
2.486522832259999e-2 2.548177536050000e-2 2.611322468900000e-2 2.675991865260000e-2
2.742220769380000e-2 2.810045063030000e-2 2.879501492230000e-2 2.950627692440000e-2
3.023462211440000e-2 3.098044529010000e-2 3.174415072790000e-2 3.252615229240000e-2
3.332687349110000e-2 3.414674746430000e-2 3.498621690619999e-2 3.584573390940000e-2
3.672575973190000e-2 3.762676448410001e-2 3.854922673930000e-2 3.949363307350000e-2
4.046047754370000e-2 4.145026111990000e-2 4.246349108860000e-2 4.350068045200000e-2
4.456234734990000e-2 4.564901453660000e-2 4.676120894570000e-2 4.789946138080000e-2
4.906430636720000e-2 5.025628219940001e-2 5.147593121510000e-2 5.272380031940001e-2
5.400044177190000e-2 5.530641424100001e-2 5.664228410930000e-2 5.800862699950001e-2
5.940602947100000e-2 6.083509081460000e-2 6.229642485399999e-2 6.379066164370000e-2
6.531844893730000e-2 6.688045329070000e-2 6.847736065980000e-2 7.010987636219999e-2
7.177872428540000e-2 7.348464525630000e-2 7.522839452760000e-2 7.701073839140000e-2
7.883244999480000e-2 8.069430450879999e-2 8.259707387299999e-2 8.454152142020000e-2
8.652839674510000e-2 8.855843123170001e-2 9.063233467530001e-2 9.275079342089999e-2
9.491447038450001e-2 9.712400722409999e-2 9.938002877340001e-2 1.016831496610000e-1
1.040339828050000e-1 1.064331492330000e-1 1.088812884140000e-1 1.113790681080000e-1
1.139271925460000e-1 1.165264077440000e-1 1.191775027800000e-1 1.218813061290000e-1
1.246386764880000e-1 1.274504880740000e-1 1.303176110200000e-1 1.332408881990000e-1
1.362211104960000e-1 1.392589931580000e-1 1.423551561770000e-1 1.455101117060000e-1
1.487242611460000e-1 1.519979036640000e-1 1.553312566420000e-1 1.587244868870000e-1
1.621777495970000e-1 1.656912303140000e-1 1.692651836630000e-1 1.728999619720000e-1
1.765960271470000e-1 1.803539406500000e-1 1.841743291100000e-1 1.880578268440000e-1
1.920050008810000e-1 1.960162683500000e-1 2.000918193820000e-1 2.042315601770000e-1
2.084350898100000e-1 2.127017201950000e-1 2.170305417060000e-1 2.214205278410000e-1
2.258706627160000e-1 2.303800669830000e-1 2.349480933510000e-1 2.395743641910000e-1
2.442587318230000e-1 2.490011567850000e-1 2.538015184300000e-1 2.586593918730000e-1
2.635738404610000e-1 2.685432782990000e-1 2.735654491010000e-1 2.786375445780000e-1
2.837564508750000e-1 2.889190724680000e-1 2.941226504030000e-1 2.993649773820000e-1
3.046444251080000e-1 3.099597421540000e-1 3.153096464300000e-1 3.206923086190000e-1
3.261048780940000e-1 3.315432169830000e-1 3.370019660010000e-1 3.424749691280000e-1
3.479559563780000e-1 3.534392669610000e-1 3.589203380470000e-1 3.643957252930000e-1
3.698625671400000e-1 3.753176194140000e-1 3.807561932820000e-1 3.861714343010000e-1
3.915543104740000e-1 3.968944229450000e-1 4.021813904750000e-1 4.074062385540000e-1
4.125621159200000e-1 4.176438719430000e-1 4.226465249210000e-1 4.275632378910000e-1
4.323837964910000e-1 4.370944915900000e-1 4.416796875180000e-1 4.461244411810000e-1
4.504168051190000e-1 4.545483897520000e-1 4.585125732890000e-1 4.623011186259999e-1
4.659011206030000e-1 4.692943369180000e-1 4.724597197020000e-1 4.753779064500000e-1
4.780348289720000e-1 4.804217347300000e-1 4.825310883940000e-1 4.843508421210000e-1
4.858612631910000e-1 4.870372232310000e-1 4.878549502980000e-1 4.882983898170000e-1
4.883598207430000e-1 4.880334273070000e-1 4.873065388700000e-1 4.861561663140000e-1
4.845548650000000e-1 4.824818253820000e-1 4.799293635530000e-1 4.768979028510000e-1
4.733830290189999e-1 4.693669845360001e-1 4.648243122380000e-1 4.597376774380000e-1
4.541080391370000e-1 4.479471783060000e-1 4.412590101580000e-1 4.340303318510000e-1
4.262435539169999e-1 4.178989009470000e-1 4.090197370959999e-1 3.996322704650000e-1
3.897431261170000e-1 3.793446651490000e-1 3.684444479290000e-1 3.570809688590000e-1
3.453017675300000e-1 3.331312856300000e-1 3.205749896480000e-1 3.076578353610000e-1
2.944416192770000e-1 2.809913328780000e-1 2.673387372920000e-1 2.535024675510000e-1
2.395369048600000e-1 2.255289379750000e-1 2.115421318900000e-1 1.976014907350000e-1
1.837499869100000e-1 1.700787025920000e-1 1.566700218370000e-1 1.435534933510000e-1
1.307610165300000e-1 1.183791817120000e-1 1.064903962000000e-1 9.511334212960000e-2
8.426715974930000e-2 7.403034911340001e-2 6.446302077830000e-2 5.555320184100000e-2
4.730985885420000e-2 3.979743419600000e-2 3.302459560030000e-2 2.694197168090000e-2
2.156152097870000e-2 1.690919220890000e-2 1.291866324800000e-2 9.536311780280000e-3
6.781722125989999e-3 4.601370024330000e-3 2.898934702810000e-3 1.665542338990000e-3
8.525128553850001e-4 3.334084766759999e-4 6.922288419250000e-5 6.718604996820000e-6
-5.421010862430002e-20 0.000000000000000e0 0.000000000000000e0 0.000000000000000e0
0.000000000000000e0 0.000000000000000e0 0.000000000000000e0 0.000000000000000e0
0.000000000000000e0 0.000000000000000e0 0.000000000000000e0 0.000000000000000e0
0.000000000000000e0 0.000000000000000e0 0.000000000000000e0 0.000000000000000e0
0.000000000000000e0 0.000000000000000e0 0.000000000000000e0 0.000000000000000e0
0.000000000000000e0 0.000000000000000e0 0.000000000000000e0 0.000000000000000e0
0.000000000000000e0 0.000000000000000e0 0.000000000000000e0 0.000000000000000e0
0.000000000000000e0 0.000000000000000e0 0.000000000000000e0 0.000000000000000e0
0.000000000000000e0 0.000000000000000e0 0.000000000000000e0 0.000000000000000e0
0.000000000000000e0 0.000000000000000e0 0.000000000000000e0 0.000000000000000e0
0.000000000000000e0 0.000000000000000e0 0.000000000000000e0 0.000000000000000e0
0.000000000000000e0 0.000000000000000e0 0.000000000000000e0 0.000000000000000e0
0.000000000000000e0 0.000000000000000e0 0.000000000000000e0 0.000000000000000e0
0.000000000000000e0 0.000000000000000e0 0.000000000000000e0 0.000000000000000e0
0.000000000000000e0 0.000000000000000e0 0.000000000000000e0 0.000000000000000e0
0.000000000000000e0 0.000000000000000e0 0.000000000000000e0 0.000000000000000e0
0.000000000000000e0 0.000000000000000e0 0.000000000000000e0 0.000000000000000e0
0.000000000000000e0 0.000000000000000e0 0.000000000000000e0 0.000000000000000e0
0.000000000000000e0 0.000000000000000e0 0.000000000000000e0 0.000000000000000e0
0.000000000000000e0 0.000000000000000e0 0.000000000000000e0 0.000000000000000e0
0.000000000000000e0 0.000000000000000e0 0.000000000000000e0 0.000000000000000e0
0.000000000000000e0 0.000000000000000e0 0.000000000000000e0 0.000000000000000e0
0.000000000000000e0 0.000000000000000e0 0.000000000000000e0 0.000000000000000e0
0.000000000000000e0 0.000000000000000e0 0.000000000000000e0 0.000000000000000e0
0.000000000000000e0 0.000000000000000e0 0.000000000000000e0 0.000000000000000e0
0.000000000000000e0 0.000000000000000e0 0.000000000000000e0 0.000000000000000e0
0.000000000000000e0 0.000000000000000e0 0.000000000000000e0 0.000000000000000e0
0.000000000000000e0 0.000000000000000e0 0.000000000000000e0 0.000000000000000e0
0.000000000000000e0 0.000000000000000e0 0.000000000000000e0 0.000000000000000e0
0.000000000000000e0 0.000000000000000e0 0.000000000000000e0 0.000000000000000e0
0.000000000000000e0 0.000000000000000e0 0.000000000000000e0 0.000000000000000e0
0.000000000000000e0 0.000000000000000e0 0.000000000000000e0 0.000000000000000e0
0.000000000000000e0 0.000000000000000e0 0.000000000000000e0 0.000000000000000e0
0.000000000000000e0 0.000000000000000e0 0.000000000000000e0 0.000000000000000e0
0.000000000000000e0 0.000000000000000e0 0.000000000000000e0 0.000000000000000e0
0.000000000000000e0 0.000000000000000e0 0.000000000000000e0 0.000000000000000e0
0.000000000000000e0 0.000000000000000e0 0.000000000000000e0 0.000000000000000e0
0.000000000000000e0 0.000000000000000e0 0.000000000000000e0 0.000000000000000e0
0.000000000000000e0 0.000000000000000e0 0.000000000000000e0 0.000000000000000e0
0.000000000000000e0 0.000000000000000e0 0.000000000000000e0 0.000000000000000e0
0.000000000000000e0 0.000000000000000e0 0.000000000000000e0 0.000000000000000e0
0.000000000000000e0 0.000000000000000e0 0.000000000000000e0 0.000000000000000e0
0.000000000000000e0 0.000000000000000e0 0.000000000000000e0 0.000000000000000e0
0.000000000000000e0 0.000000000000000e0 0.000000000000000e0 0.000000000000000e0
0.000000000000000e0 0.000000000000000e0 0.000000000000000e0 0.000000000000000e0
0.000000000000000e0 0.000000000000000e0 0.000000000000000e0 0.000000000000000e0
0.000000000000000e0 0.000000000000000e0 0.000000000000000e0 0.000000000000000e0
0.000000000000000e0 0.000000000000000e0 0.000000000000000e0 0.000000000000000e0
0.000000000000000e0 0.000000000000000e0 0.000000000000000e0 0.000000000000000e0
0.000000000000000e0 0.000000000000000e0 0.000000000000000e0 0.000000000000000e0
0.000000000000000e0 0.000000000000000e0 0.000000000000000e0 0.000000000000000e0
0.000000000000000e0 0.000000000000000e0 0.000000000000000e0 0.000000000000000e0
0.000000000000000e0 0.000000000000000e0 0.000000000000000e0 0.000000000000000e0
0.000000000000000e0 0.000000000000000e0 0.000000000000000e0 0.000000000000000e0
0.000000000000000e0 0.000000000000000e0 0.000000000000000e0 0.000000000000000e0
0.000000000000000e0 0.000000000000000e0 0.000000000000000e0 0.000000000000000e0
0.000000000000000e0 0.000000000000000e0 0.000000000000000e0 0.000000000000000e0
0.000000000000000e0 0.000000000000000e0 0.000000000000000e0 0.000000000000000e0
0.000000000000000e0 0.000000000000000e0 0.000000000000000e0 0.000000000000000e0
0.000000000000000e0 0.000000000000000e0 0.000000000000000e0 0.000000000000000e0
0.000000000000000e0 0.000000000000000e0 0.000000000000000e0 0.000000000000000e0
0.000000000000000e0 0.000000000000000e0 0.000000000000000e0 0.000000000000000e0
0.000000000000000e0 0.000000000000000e0 0.000000000000000e0 0.000000000000000e0
0.000000000000000e0 0.000000000000000e0 0.000000000000000e0 0.000000000000000e0
0.000000000000000e0 0.000000000000000e0 0.000000000000000e0 0.000000000000000e0
0.000000000000000e0 0.000000000000000e0 0.000000000000000e0 0.000000000000000e0
0.000000000000000e0 0.000000000000000e0 0.000000000000000e0 0.000000000000000e0
0.000000000000000e0 0.000000000000000e0 0.000000000000000e0 0.000000000000000e0
0.000000000000000e0 0.000000000000000e0 0.000000000000000e0 0.000000000000000e0
0.000000000000000e0 0.000000000000000e0 0.000000000000000e0 0.000000000000000e0
0.000000000000000e0 0.000000000000000e0 0.000000000000000e0 0.000000000000000e0
0.000000000000000e0 0.000000000000000e0 0.000000000000000e0 0.000000000000000e0
0.000000000000000e0 0.000000000000000e0 0.000000000000000e0 0.000000000000000e0
0.000000000000000e0 0.000000000000000e0 0.000000000000000e0 0.000000000000000e0
0.000000000000000e0 0.000000000000000e0 0.000000000000000e0 0.000000000000000e0
0.000000000000000e0 0.000000000000000e0 0.000000000000000e0 0.000000000000000e0
0.000000000000000e0 0.000000000000000e0 0.000000000000000e0 0.000000000000000e0
0.000000000000000e0 0.000000000000000e0 0.000000000000000e0 0.000000000000000e0
0.000000000000000e0 0.000000000000000e0 0.000000000000000e0 0.000000000000000e0
0.000000000000000e0 0.000000000000000e0 0.000000000000000e0 0.000000000000000e0
0.000000000000000e0 0.000000000000000e0 0.000000000000000e0 0.000000000000000e0
0.000000000000000e0 0.000000000000000e0 0.000000000000000e0 0.000000000000000e0
0.000000000000000e0 0.000000000000000e0 0.000000000000000e0 0.000000000000000e0
0.000000000000000e0
</PP_QIJ.1.2>
<PP_QIJ.1.3 first_index="1" second_index="3" composite_index="4">
2.897806350220000e-12 3.008537301910000e-12 3.123499503350001e-12 3.242854638990000e-12
3.366770571560000e-12 3.495421578119999e-12 3.628988595229999e-12 3.767659473390000e-12
3.911629241230000e-12 4.061100379810000e-12 4.216283107390001e-12 4.377395675070000e-12
4.544664673780000e-12 4.718325352920000e-12 4.898621951220000e-12 5.085808040260000e-12
5.280146881099999e-12 5.481911794500000e-12 5.691386545360000e-12 5.908865741780001e-12
6.134655249410002e-12 6.369072621650000e-12 6.612447546199998e-12 6.865122308800000e-12
7.127452274570000e-12 7.399806387860000e-12 7.682567691069999e-12 7.976133863419999e-12
8.280917780199999e-12 8.597348093509998e-12 8.925869835039999e-12 9.266945042040000e-12
9.621053407070001e-12 9.988692952700003e-12 1.037038073190000e-11 1.076665355520000e-11
1.117806874580000e-11 1.160520492320000e-11 1.204866281710000e-11 1.250906611220000e-11
1.298706232550000e-11 1.348332371690000e-11 1.399854823440000e-11 1.453346049620000e-11
1.508881280940000e-11 1.566538622840000e-11 1.626399165280000e-11 1.688547096870000e-11
1.753069823200000e-11 1.820058089800000e-11 1.889606109760000e-11 1.961811696230001e-11
2.036776399990000e-11 2.114605652280000e-11 2.195408913050001e-11 2.279299824920001e-11
2.366396373050000e-11 2.456821050980000e-11 2.550701032990000e-11 2.648168352940000e-11
2.749360089940000e-11 2.854418561150000e-11 2.963491521919999e-11 3.076732373660000e-11
3.194300379480000e-11 3.316360888260000e-11 3.443085567180000e-11 3.574652643110000e-11
3.711247153340000e-11 3.853061205750000e-11 4.000294249020000e-11 4.153153353160000e-11
4.311853500689999e-11 4.476617888990001e-11 4.647678244270001e-11 4.825275147380001e-11
5.009658372230000e-11 5.201087237050000e-11 5.399830969079998e-11 5.606169083219998e-11
5.820391775170000e-11 6.042800329510001e-11 6.273707543440001e-11 6.513438166749999e-11
6.762329358440001e-11 7.020731161029998e-11 7.289006992720002e-11 7.567534158640000e-11
7.856704381350000e-11 8.156924351879999e-11 8.468616301619997e-11 8.792218596150002e-11
9.128186351800004e-11 9.476992075659998e-11 9.839126330179999e-11 1.021509842300000e-10
1.060543712330000e-10 1.101069140550000e-10 1.143143122130000e-10 1.186824830100000e-10
1.232175698610000e-10 1.279259509330000e-10 1.328142481090000e-10 1.378893363100000e-10
1.431583531570000e-10 1.486287090100000e-10 1.543080973930000e-10 1.602045058140000e-10
1.663262269920000e-10 1.726818705270000e-10 1.792803750080000e-10 1.861310205770000e-10
1.932434419890000e-10 2.006276421560000e-10 2.082940062190000e-10 2.162533161490000e-10
2.245167659160000e-10 2.330959772260000e-10 2.420030158700000e-10 2.512504086900000e-10
2.608511612000001e-10 2.708187758710000e-10 2.811672711250001e-10 2.919112010500000e-10
3.030656758630000e-10 3.146463831689999e-10 3.266696100149999e-10 3.391522658020001e-10
3.521119060610000e-10 3.655667571450000e-10 3.795357418600001e-10 3.940385060809999e-10
4.090954463739999e-10 4.247277386890000e-10 4.409573681329999e-10 4.578071598950000e-10
4.753008113429999e-10 4.934629253490000e-10 5.123190448949999e-10 5.318956889870000e-10
5.522203899570000e-10 5.733217321800002e-10 5.952293922700001e-10 6.179741808219999e-10
6.415880857340000e-10 6.661043171990000e-10 6.915573544069998e-10 7.179829940329999e-10
7.454184005790000e-10 7.739021586399999e-10 8.034743271670003e-10 8.341764957980001e-10
8.660518433530001e-10 8.991451985510002e-10 9.335031030540000e-10 9.691738769219995e-10
1.006207686560000e-9 1.044656615280000e-9 1.084574736510000e-9 1.126018189900000e-9
1.169045260200000e-9 1.213716459280000e-9 1.260094611200000e-9 1.308244940550000e-9
1.358235164200000e-9 1.410135586510000e-9 1.464019198210000e-9 1.519961779030000e-9
1.578042004280000e-9 1.638341555460000e-9 1.700945235170000e-9 1.765941086320000e-9
1.833420515980000e-9 1.903478423870000e-9 1.976213335860000e-9 2.051727542510000e-9
2.130127242880000e-9 2.211522693900000e-9 2.296028365430000e-9 2.383763101190000e-9
2.474850285890000e-9 2.569418018760000e-9 2.667599293650000e-9 2.769532186060000e-9
2.875360047320000e-9 2.985231706110000e-9 3.099301677790000e-9 3.217730381680000e-9
3.340684366589999e-9 3.468336545040001e-9 3.600866436410000e-9 3.738460419360000e-9
3.881311993889999e-9 4.029622053450000e-9 4.183599167410000e-9 4.343459874310001e-9
4.509428986390001e-9 4.681739905640001e-9 4.860634952010001e-9 5.046365704150001e-9
5.239193353110001e-9 5.439389069610000e-9 5.647234385340000e-9 5.863021588770001e-9
6.087054136140000e-9 6.319647078120000e-9 6.561127502800000e-9 6.811834995539999e-9
7.072122116439999e-9 7.342354896070001e-9 7.622913350040000e-9 7.914192013329999e-9
8.216600494990001e-9 8.530564053990000e-9 8.856524197140001e-9 9.194939299809999e-9
9.546285250320000e-9 9.911056119060000e-9 1.028976485300000e-8 1.068294399700000e-8
1.109114644220000e-8 1.151494620350000e-8 1.195493922660000e-8 1.241174422550000e-8
1.288600355260000e-8 1.337838410160000e-8 1.388957824470000e-8 1.442030480630001e-8
1.497131007330000e-8 1.554336884430000e-8 1.613728551840000e-8 1.675389522620000e-8
1.739406500370000e-8 1.805869501100000e-8 1.874871979730000e-8 1.946510961510000e-8
2.020887178320000e-8 2.098105210340000e-8 2.178273632960000e-8 2.261505169440000e-8
2.347916849300000e-8 2.437630172850000e-8 2.530771281880000e-8 2.627471137030001e-8
2.727865701759999e-8 2.832096133469999e-8 2.940308981870000e-8 3.052656394930001e-8
3.169296332650001e-8 3.290392789110002e-8 3.416116022850001e-8 3.546642796130000e-8
3.682156623350000e-8 3.822848028850000e-8 3.968914814669999e-8 4.120562338450000e-8
4.278003801930000e-8 4.441460550580000e-8 4.611162384500000e-8 4.787347881300000e-8
4.970264731299999e-8 5.160170085450000e-8 5.357330916620001e-8 5.562024394600000e-8
5.774538275449999e-8 5.995171305740000e-8 6.224233642130001e-8 6.462047287050000e-8
6.708946540960001e-8 6.965278471840000e-8 7.231403402690001e-8 7.507695417510001e-8
7.794542886680000e-8 8.092349012310001e-8 8.401532394489999e-8 8.722527619010002e-8
9.055785867650002e-8 9.401775551609997e-8 9.760982969190001e-8 1.013391298850000e-7
1.052108975640000e-7 1.092305743390000e-7 1.134038096070000e-7 1.177364684740000e-7
1.222346399940000e-7 1.269046457110000e-7 1.317530485350000e-7 1.367866619470000e-7
1.420125595680000e-7 1.474380850780000e-7 1.530708625230000e-7 1.589188070140000e-7
1.649901358300000e-7 1.712933799470000e-7 1.778373960040000e-7 1.846313787290000e-7
1.916848738330000e-7 1.990077914020000e-7 2.066104197930000e-7 2.145034400590000e-7
2.226979409350000e-7 2.312054343760000e-7 2.400378717060000e-7 2.492076603650001e-7
2.587276813079999e-7 2.686113070579999e-7 2.788724204460000e-7 2.895254340720000e-7
3.005853104970000e-7 3.120675832130000e-7 3.239883784020000e-7 3.363644375320001e-7
3.492131408030000e-7 3.625525314950000e-7 3.764013412370000e-7 3.907790162360000e-7
4.057057445070001e-7 4.212024841360000e-7 4.372909926190000e-7 4.539938573170001e-7
4.713345270690000e-7 4.893373450000000e-7 5.080275825900000e-7 5.274314750220000e-7
5.475762578840000e-7 5.684902052589999e-7 5.902026692680000e-7 6.127441211070000e-7
6.361461936460000e-7 6.604417256500001e-7 6.856648076710002e-7 7.118508296850000e-7
7.390365305350000e-7 7.672600492549999e-7 7.965609783360001e-7 8.269804190120000e-7
8.585610386430000e-7 8.913471302769999e-7 9.253846744659999e-7 9.607214034229999e-7
9.974068676130001e-7 1.035492504870000e-6 1.075031712110000e-6 1.116079919810000e-6
1.158694669230000e-6 1.202935692640000e-6 1.248864996490000e-6 1.296546947850000e-6
1.346048363970000e-6 1.397438605360000e-6 1.450789672310000e-6 1.506176305060000e-6
1.563676087780000e-6 1.623369556500000e-6 1.685340311030000e-6 1.749675131170000e-6
1.816464097320000e-6 1.885800715570000e-6 1.957782047540000e-6 2.032508845170000e-6
2.110085690450000e-6 2.190621140570000e-6 2.274227878430000e-6 2.361022868830000e-6
2.451127520590000e-6 2.544667854690000e-6 2.641774678770000e-6 2.742583768179999e-6
2.847236053860000e-6 2.955877817190000e-6 3.068660892240000e-6 3.185742875550001e-6
3.307287343790000e-6 3.433464079570000e-6 3.564449305710000e-6 3.700425928290000e-6
3.841583788750000e-6 3.988119925419999e-6 4.140238844920000e-6 4.298152803530000e-6
4.462082099170001e-6 4.632255374250000e-6 4.808909929810000e-6 4.992292051310000e-6
5.182657346599999e-6 5.380271096450000e-6 5.585408618110001e-6 5.798355642340001e-6
6.019408704440000e-6 6.248875549849999e-6 6.487075554689998e-6 6.734340161890000e-6
6.991013333480000e-6 7.257452019599999e-6 7.534026644790000e-6 7.821121612239999e-6
8.119135826639999e-6 8.428483236270003e-6 8.749593395020000e-6 9.082912045099999e-6
9.428901721090000e-6 9.788042376160000e-6 1.016083203130000e-5 1.054778744820000e-5
1.094944482670000e-5 1.136636052780000e-5 1.179911182320000e-5 1.224829767140000e-5
1.271453952320000e-5 1.319848215530000e-5 1.370079453460000e-5 1.422217071420000e-5
1.476333076110000e-5 1.532502171780000e-5 1.590801859840000e-5 1.651312542060000e-5
1.714117627490000e-5 1.779303643180000e-5 1.846960348930000e-5 1.917180856030000e-5
1.990061750360000e-5 2.065703219810000e-5 2.144209186190000e-5 2.225687441900000e-5
2.310249791380000e-5 2.398012197600000e-5 2.489094933600000e-5 2.583622739520000e-5
2.681724985010001e-5 2.783535837370000e-5 2.889194435530000e-5 2.998845070110001e-5
3.112637369720000e-5 3.230726493690001e-5 3.353273331450001e-5 3.480444708810000e-5
3.612413601260001e-5 3.749359354550000e-5 3.891467912870000e-5 4.038932054660000e-5
4.191951636500001e-5 4.350733845150001e-5 4.515493458070000e-5 4.686453112650001e-5
4.863843584450001e-5 5.047904074570000e-5 5.238882506599999e-5 5.437035833280000e-5
5.642630353200000e-5 5.855942037789999e-5 6.077256868939999e-5 6.306871187479999e-5
6.545092052740000e-5 6.792237613700001e-5 7.048637491760001e-5 7.314633175660000e-5
7.590578428610001e-5 7.876839708210001e-5 8.173796599180001e-5 8.481842259399999e-5
8.801383879460001e-5 9.132843156099998e-5 9.476656779670002e-5 9.833276936190000e-5
1.020317182400000e-4 1.058682618520000e-4 1.098474185330000e-4 1.139743831500000e-4
1.182545328880000e-4 1.226934331970000e-4 1.272968438940000e-4 1.320707254410000e-4
1.370212453820000e-4 1.421547849530000e-4 1.474779458660000e-4 1.529975572590000e-4
1.587206828240000e-4 1.646546281150000e-4 1.708069480220000e-4 1.771854544280000e-4
1.837982240400000e-4 1.906536064000000e-4 1.977602320630000e-4 2.051270209580000e-4
2.127631909160000e-4 2.206782663690000e-4 2.288820872160000e-4 2.373848178540000e-4
2.461969563670000e-4 2.553293438660000e-4 2.647931739840001e-4 2.746000025040000e-4
2.847617571280000e-4 2.952907473680000e-4 3.061996745450000e-4 3.175016419040000e-4
3.292101648090000e-4 3.413391810180000e-4 3.539030610220000e-4 3.669166184240000e-4
3.803951203480000e-4 3.943542978460001e-4 4.088103562950001e-4 4.237799857440000e-4
4.392803711950000e-4 4.553292027820000e-4 4.719446858230000e-4 4.891455506980000e-4
5.069510625340000e-4 5.253810306280000e-4 5.444558176020000e-4 5.641963482000000e-4
5.846241177170000e-4 6.057611999620000e-4 6.276302547430000e-4 6.502545347610001e-4
6.736578918839999e-4 6.978647827060001e-4 7.229002733169999e-4 7.487900432009999e-4
7.755603881750000e-4 8.032382222590000e-4 8.318510783940001e-4 8.614271078809999e-4
8.919950784340001e-4 9.235843707219999e-4 9.562249732580000e-4 9.899474755060000e-4
1.024783059050000e-3 1.060763486690000e-3 1.097921089200000e-3 1.136288749790000e-3
1.175899885740000e-3 1.216788427420000e-3 1.258988794090000e-3 1.302535866530000e-3
1.347464956210000e-3 1.393811770570000e-3 1.441612374470000e-3 1.490903147240000e-3
1.541720735210000e-3 1.594101999400000e-3 1.648083957920000e-3 1.703703723020000e-3
1.760998432100000e-3 1.820005172600000e-3 1.880760900260000e-3 1.943302350340000e-3
2.007665941470000e-3 2.073887671610000e-3 2.142003005720000e-3 2.212046754720000e-3
2.284052945120000e-3 2.358054679020000e-3 2.434083983760000e-3 2.512171650830000e-3
2.592347063490000e-3 2.674638012480000e-3 2.759070499230000e-3 2.845668526070000e-3
2.934453872840000e-3 3.025445859150000e-3 3.118661091890000e-3 3.214113197120000e-3
3.311812536000000e-3 3.411765903890001e-3 3.513976212070000e-3 3.618442151550000e-3
3.725157838210000e-3 3.834112438820000e-3 3.945289777209999e-3 4.058667920160000e-3
4.174218742420000e-3 4.291907470330000e-3 4.411692203739999e-3 4.533523415579999e-3
4.657343428990001e-3 4.783085871600000e-3 4.910675106740000e-3 5.040025641570001e-3
5.171041512030000e-3 5.303615644799999e-3 5.437629196360000e-3 5.572950869710001e-3
5.709436209090000e-3 5.846926873570000e-3 5.985249890250000e-3 6.124216888270000e-3
6.263623314970000e-3 6.403247635700000e-3 6.542850519240000e-3 6.682174010920000e-3
6.820940695950001e-3 6.958852855830000e-3 7.095591620950000e-3 7.230816123130000e-3
7.364162651979999e-3 7.495243819769999e-3 7.623647739680001e-3 7.748937223000000e-3
7.870649001359999e-3 7.988292980669999e-3 8.101351534059999e-3 8.209278841630001e-3
8.311500285840001e-3 8.407411911580001e-3 8.496379961190000e-3 8.577740495019999e-3
8.650799109150000e-3 8.714830762729999e-3 8.769079727830000e-3 8.812759675890000e-3
8.845053915570000e-3 8.865115797360001e-3 8.872069301400000e-3 8.865009825520000e-3
8.843005191370001e-3 8.805096886980001e-3 8.750301564900001e-3 8.677612815589999e-3
8.586003235920002e-3 8.474426813359999e-3 8.341821646309999e-3 8.187113021220000e-3
8.009216867050000e-3 7.807043607109999e-3 7.579502428090001e-3 7.325505984870000e-3
7.043975558960001e-3 6.733846686880001e-3 6.394075272900000e-3 6.023644198700000e-3
5.621570439759999e-3 5.186912695280000e-3 4.718779535169999e-3 4.216338063340000e-3
3.678823092320000e-3 3.105546818770000e-3 2.495908984140000e-3 1.849407497920000e-3
1.165649494390000e-3 4.443627858520000e-4 -3.145923329370000e-4 -1.111210983210000e-3
-1.945331367430000e-3 -2.816622275270000e-3 -3.724570515200000e-3 -4.668468367820000e-3
-5.647401168949999e-3 -6.660235142460000e-3 -7.705605615590000e-3 -8.781905761699999e-3
-9.887276028190000e-3 -1.101959441950000e-2 -1.217646781710000e-2 -1.335522453020000e-2
-1.455290827940000e-2 -1.576627382830000e-2 -1.699178448110000e-2 -1.822561167500000e-2
-1.946363689530000e-2 -2.070145614670000e-2 -2.193438720690000e-2 -2.315747988980000e-2
-2.436552953030000e-2 -2.555309389260000e-2 -2.671451368620000e-2 -2.784393684690000e-2
-2.893534671690000e-2 -2.998259421830000e-2 -3.097943407780000e-2 -3.191956511250000e-2
-3.279667453340001e-2 -3.360448616570000e-2 -3.433681241940000e-2 -3.498760977269999e-2
-3.555103745640000e-2 -3.602151894670000e-2 -3.639380578880000e-2 -3.666304319190000e-2
-3.682483674260000e-2 -3.687531950430000e-2 -3.681121867980000e-2 -3.662992093810000e-2
-3.632953543230000e-2 -3.590895346960000e-2 -3.536790374260001e-2 -3.470700199380000e-2
-3.392779395870000e-2 -3.303279043470000e-2 -3.202549333940000e-2 -3.091041166370000e-2
-2.969306629560000e-2 -2.837998278470000e-2 -2.697867124000000e-2 -2.549759270510000e-2
-2.394611153300000e-2 -2.233443348490000e-2 -2.067352950430000e-2 -1.897504536020000e-2
-1.725119761450000e-2 -1.551465663140000e-2 -1.377841761480000e-2 -1.205566091920000e-2
-1.035960312170000e-2 -8.703340560930000e-3 -7.099687229939999e-3 -5.561009050629999e-3
-4.099056639070001e-3 -2.724798696640000e-3 -1.448258117440000e-3 -2.783527866850000e-4
7.772571441520000e-4 1.712313981490000e-3 2.522098018720000e-3 3.203553065580000e-3
3.755401610820000e-3 4.178249721610000e-3 4.474682266720000e-3 4.649349524280000e-3
4.709046673720000e-3 4.662788046090000e-3 4.521878286470000e-3 4.299982734689999e-3
4.013199320330000e-3 3.678118401390000e-3 3.305555814950000e-3 2.906143285510000e-3
2.492305892210000e-3 2.078269118110000e-3 1.680032469200000e-3 1.313344618860000e-3
9.867388446700000e-4 7.055001726970000e-4 4.731009222270001e-4 2.909144016810000e-4
1.579340988120000e-4 7.050327088940000e-5 2.206036441890000e-5 2.906264346130000e-6
-5.551115123130000e-17 0.000000000000000e0 0.000000000000000e0 0.000000000000000e0
0.000000000000000e0 0.000000000000000e0 0.000000000000000e0 0.000000000000000e0
0.000000000000000e0 0.000000000000000e0 0.000000000000000e0 0.000000000000000e0
0.000000000000000e0 0.000000000000000e0 0.000000000000000e0 0.000000000000000e0
0.000000000000000e0 0.000000000000000e0 0.000000000000000e0 0.000000000000000e0
0.000000000000000e0 0.000000000000000e0 0.000000000000000e0 0.000000000000000e0
0.000000000000000e0 0.000000000000000e0 0.000000000000000e0 0.000000000000000e0
0.000000000000000e0 0.000000000000000e0 0.000000000000000e0 0.000000000000000e0
0.000000000000000e0 0.000000000000000e0 0.000000000000000e0 0.000000000000000e0
0.000000000000000e0 0.000000000000000e0 0.000000000000000e0 0.000000000000000e0
0.000000000000000e0 0.000000000000000e0 0.000000000000000e0 0.000000000000000e0
0.000000000000000e0 0.000000000000000e0 0.000000000000000e0 0.000000000000000e0
0.000000000000000e0 0.000000000000000e0 0.000000000000000e0 0.000000000000000e0
0.000000000000000e0 0.000000000000000e0 0.000000000000000e0 0.000000000000000e0
0.000000000000000e0 0.000000000000000e0 0.000000000000000e0 0.000000000000000e0
0.000000000000000e0 0.000000000000000e0 0.000000000000000e0 0.000000000000000e0
0.000000000000000e0 0.000000000000000e0 0.000000000000000e0 0.000000000000000e0
0.000000000000000e0 0.000000000000000e0 0.000000000000000e0 0.000000000000000e0
0.000000000000000e0 0.000000000000000e0 0.000000000000000e0 0.000000000000000e0
0.000000000000000e0 0.000000000000000e0 0.000000000000000e0 0.000000000000000e0
0.000000000000000e0 0.000000000000000e0 0.000000000000000e0 0.000000000000000e0
0.000000000000000e0 0.000000000000000e0 0.000000000000000e0 0.000000000000000e0
0.000000000000000e0 0.000000000000000e0 0.000000000000000e0 0.000000000000000e0
0.000000000000000e0 0.000000000000000e0 0.000000000000000e0 0.000000000000000e0
0.000000000000000e0 0.000000000000000e0 0.000000000000000e0 0.000000000000000e0
0.000000000000000e0 0.000000000000000e0 0.000000000000000e0 0.000000000000000e0
0.000000000000000e0 0.000000000000000e0 0.000000000000000e0 0.000000000000000e0
0.000000000000000e0 0.000000000000000e0 0.000000000000000e0 0.000000000000000e0
0.000000000000000e0 0.000000000000000e0 0.000000000000000e0 0.000000000000000e0
0.000000000000000e0 0.000000000000000e0 0.000000000000000e0 0.000000000000000e0
0.000000000000000e0 0.000000000000000e0 0.000000000000000e0 0.000000000000000e0
0.000000000000000e0 0.000000000000000e0 0.000000000000000e0 0.000000000000000e0
0.000000000000000e0 0.000000000000000e0 0.000000000000000e0 0.000000000000000e0
0.000000000000000e0 0.000000000000000e0 0.000000000000000e0 0.000000000000000e0
0.000000000000000e0 0.000000000000000e0 0.000000000000000e0 0.000000000000000e0
0.000000000000000e0 0.000000000000000e0 0.000000000000000e0 0.000000000000000e0
0.000000000000000e0 0.000000000000000e0 0.000000000000000e0 0.000000000000000e0
0.000000000000000e0 0.000000000000000e0 0.000000000000000e0 0.000000000000000e0
0.000000000000000e0 0.000000000000000e0 0.000000000000000e0 0.000000000000000e0
0.000000000000000e0 0.000000000000000e0 0.000000000000000e0 0.000000000000000e0
0.000000000000000e0 0.000000000000000e0 0.000000000000000e0 0.000000000000000e0
0.000000000000000e0 0.000000000000000e0 0.000000000000000e0 0.000000000000000e0
0.000000000000000e0 0.000000000000000e0 0.000000000000000e0 0.000000000000000e0
0.000000000000000e0 0.000000000000000e0 0.000000000000000e0 0.000000000000000e0
0.000000000000000e0 0.000000000000000e0 0.000000000000000e0 0.000000000000000e0
0.000000000000000e0 0.000000000000000e0 0.000000000000000e0 0.000000000000000e0
0.000000000000000e0 0.000000000000000e0 0.000000000000000e0 0.000000000000000e0
0.000000000000000e0 0.000000000000000e0 0.000000000000000e0 0.000000000000000e0
0.000000000000000e0 0.000000000000000e0 0.000000000000000e0 0.000000000000000e0
0.000000000000000e0 0.000000000000000e0 0.000000000000000e0 0.000000000000000e0
0.000000000000000e0 0.000000000000000e0 0.000000000000000e0 0.000000000000000e0
0.000000000000000e0 0.000000000000000e0 0.000000000000000e0 0.000000000000000e0
0.000000000000000e0 0.000000000000000e0 0.000000000000000e0 0.000000000000000e0
0.000000000000000e0 0.000000000000000e0 0.000000000000000e0 0.000000000000000e0
0.000000000000000e0 0.000000000000000e0 0.000000000000000e0 0.000000000000000e0
0.000000000000000e0 0.000000000000000e0 0.000000000000000e0 0.000000000000000e0
0.000000000000000e0 0.000000000000000e0 0.000000000000000e0 0.000000000000000e0
0.000000000000000e0 0.000000000000000e0 0.000000000000000e0 0.000000000000000e0
0.000000000000000e0 0.000000000000000e0 0.000000000000000e0 0.000000000000000e0
0.000000000000000e0 0.000000000000000e0 0.000000000000000e0 0.000000000000000e0
0.000000000000000e0 0.000000000000000e0 0.000000000000000e0 0.000000000000000e0
0.000000000000000e0 0.000000000000000e0 0.000000000000000e0 0.000000000000000e0
0.000000000000000e0 0.000000000000000e0 0.000000000000000e0 0.000000000000000e0
0.000000000000000e0 0.000000000000000e0 0.000000000000000e0 0.000000000000000e0
0.000000000000000e0 0.000000000000000e0 0.000000000000000e0 0.000000000000000e0
0.000000000000000e0 0.000000000000000e0 0.000000000000000e0 0.000000000000000e0
0.000000000000000e0 0.000000000000000e0 0.000000000000000e0 0.000000000000000e0
0.000000000000000e0 0.000000000000000e0 0.000000000000000e0 0.000000000000000e0
0.000000000000000e0 0.000000000000000e0 0.000000000000000e0 0.000000000000000e0
0.000000000000000e0 0.000000000000000e0 0.000000000000000e0 0.000000000000000e0
0.000000000000000e0 0.000000000000000e0 0.000000000000000e0 0.000000000000000e0
0.000000000000000e0 0.000000000000000e0 0.000000000000000e0 0.000000000000000e0
0.000000000000000e0 0.000000000000000e0 0.000000000000000e0 0.000000000000000e0
0.000000000000000e0 0.000000000000000e0 0.000000000000000e0 0.000000000000000e0
0.000000000000000e0 0.000000000000000e0 0.000000000000000e0 0.000000000000000e0
0.000000000000000e0 0.000000000000000e0 0.000000000000000e0 0.000000000000000e0
0.000000000000000e0 0.000000000000000e0 0.000000000000000e0 0.000000000000000e0
0.000000000000000e0 0.000000000000000e0 0.000000000000000e0 0.000000000000000e0
0.000000000000000e0 0.000000000000000e0 0.000000000000000e0 0.000000000000000e0
0.000000000000000e0 0.000000000000000e0 0.000000000000000e0 0.000000000000000e0
0.000000000000000e0 0.000000000000000e0 0.000000000000000e0 0.000000000000000e0
0.000000000000000e0 0.000000000000000e0 0.000000000000000e0 0.000000000000000e0
0.000000000000000e0 0.000000000000000e0 0.000000000000000e0 0.000000000000000e0
0.000000000000000e0
</PP_QIJ.1.3>
<PP_QIJ.1.4 first_index="1" second_index="4" composite_index="7">
3.494429923619999e-12 3.627959053530000e-12 3.766590597130000e-12 3.910519527770000e-12
4.059948269100000e-12 4.215086979800001e-12 4.376153849130000e-12 4.543375403780001e-12
4.716986826469999e-12 4.897232286730000e-12 5.084365284280001e-12 5.278649005550000e-12
5.480356693880001e-12 5.689772033730000e-12 5.907189549739998e-12 6.132915020890000e-12
6.367265910589998e-12 6.610571813150000e-12 6.863174917319999e-12 7.125430487560001e-12
7.397707363680000e-12 7.680388479590001e-12 7.973871401840000e-12 8.278568888790002e-12
8.594909471120001e-12 8.923338054470001e-12 9.264316545230001e-12 9.618324500129999e-12
9.985859800679997e-12 1.036743935340000e-11 1.076359981700000e-11 1.117489835660000e-11
1.160191342810000e-11 1.204524559100000e-11 1.250551835350000e-11 1.298337904930000e-11
1.347949974790000e-11 1.399457819990000e-11 1.452933881840000e-11 1.508453369750000e-11
1.566094367060000e-11 1.625937940800000e-11 1.688068255730000e-11 1.752572692729999e-11
1.819541971660000e-11 1.889070278940000e-11 1.961255400070000e-11 2.036198857110000e-11
2.114006051470001e-11 2.194786412149999e-11 2.278653549650000e-11 2.365725415730000e-11
2.456124469340000e-11 2.549977848809999e-11 2.647417550650000e-11 2.748580615240000e-11
2.853609319520000e-11 2.962651377109999e-11 3.075860146040000e-11 3.193394844449999e-11
3.315420774510000e-11 3.442109554900000e-11 3.573639362170000e-11 3.710195181339999e-11
3.851969066070000e-11 3.999160408740001e-11 4.151976220880000e-11 4.310631424340000e-11
4.475349153539998e-11 4.646361069280000e-11 4.823907684560000e-11 5.008238702809999e-11
5.199613369140000e-11 5.398300834859999e-11 5.604580536079999e-11 5.818742586670000e-11
6.041088186310001e-11 6.271930044059999e-11 6.511592818180000e-11 6.760413572729997e-11
7.018742251600001e-11 7.286942170700001e-11 7.565390528879999e-11 7.854478938489999e-11
8.154613976070001e-11 8.466217754199999e-11 8.789728515180000e-11 9.125601247320002e-11
9.474308324850000e-11 9.836340172310001e-11 1.021220595420000e-10 1.060243429120000e-10
1.100757400340000e-10 1.142819488240000e-10 1.186488849260000e-10 1.231826900290000e-10
1.278897405090000e-10 1.327766563940000e-10 1.378503106750000e-10 1.431178389720000e-10
1.485866495700000e-10 1.542644338360000e-10 1.601591770390000e-10 1.662791695780000e-10
1.726330186440000e-10 1.792296603230000e-10 1.860783721620000e-10 1.931887862210001e-10
2.005709026180000e-10 2.082351035899999e-10 2.161921681000000e-10 2.244532869890000e-10
2.330300787230000e-10 2.419346057260000e-10 2.511793913490000e-10 2.607774374780001e-10
2.707422428260000e-10 2.810878219110000e-10 2.918287247690001e-10 3.029800574169999e-10
3.145575030959999e-10 3.265773443290000e-10 3.390564858200000e-10 3.520124782270000e-10
3.654635428469999e-10 3.794285972400001e-10 3.939272818369999e-10 4.089799875570001e-10
4.246078844890000e-10 4.408329516590001e-10 4.576780079480000e-10 4.751667441790000e-10
4.933237564350001e-10 5.121745806490001e-10 5.317457285230000e-10 5.520647248050002e-10
5.731601460019999e-10 5.950616605700000e-10 6.178000706370001e-10 6.414073553220002e-10
6.659167157090000e-10 6.913626215369999e-10 7.177808596800000e-10 7.452085844759999e-10
7.736843699740002e-10 8.032482641870001e-10 8.339418454120000e-10 8.658082807009999e-10
8.988923865730001e-10 9.332406920369998e-10 9.689015040270004e-10 1.005924975340000e-9
1.044363175170000e-9 1.084270162330000e-9 1.125702061270000e-9 1.168717141010000e-9
1.213375897120000e-9 1.259741136720000e-9 1.307878066880000e-9 1.357854386290000e-9
1.409740380440000e-9 1.463609020540000e-9 1.519536066040000e-9 1.577600171260000e-9
1.637882995940000e-9 1.700469320100000e-9 1.765447163280000e-9 1.832907908310000e-9
1.902946429790000e-9 1.975661227580000e-9 2.051154565230001e-9 2.129532613870000e-9
2.210905601480000e-9 2.295387967900000e-9 2.383098525760000e-9 2.474160627570000e-9
2.568702339200001e-9 2.666856619930000e-9 2.768761509480000e-9 2.874560322090000e-9
2.984401848040000e-9 3.098440562960001e-9 3.216836844950000e-9 3.339757200210000e-9
3.467374497119999e-9 3.599868209360000e-9 3.737424668280001e-9 3.880237324910000e-9
4.028507022019999e-9 4.182442276510000e-9 4.342259572680001e-9 4.508183666560001e-9
4.680447902060000e-9 4.859294539000000e-9 5.044975093830000e-9 5.237750693300001e-9
5.437892441600000e-9 5.645681801620000e-9 5.861410990709999e-9 6.085383391570000e-9
6.317913978869999e-9 6.559329762119999e-9 6.809970245490000e-9 7.070187905199998e-9
7.340348685129999e-9 7.620832511350001e-9 7.912033826369999e-9 8.214362143730002e-9
8.528242623809998e-9 8.854116671640000e-9 9.192442557500001e-9 9.543696061320004e-9
9.908371141620000e-9 1.028698063000000e-8 1.068005695220000e-8 1.108815287680000e-8
1.151184229220000e-8 1.195172101370000e-8 1.240840762100000e-8 1.288254432800000e-8
1.337479788590000e-8 1.388586052020000e-8 1.441645090440000e-8 1.496731516990000e-8
1.553922795530000e-8 1.613299349540001e-8 1.674944675190000e-8 1.738945458710000e-8
1.805391698250000e-8 1.874376830440000e-8 1.945997861700000e-8 2.020355504650000e-8
2.097554319649999e-8 2.177702861830000e-8 2.260913833670000e-8 2.347304243410000e-8
2.436995569580000e-8 2.530113931700000e-8 2.626790267640000e-8 2.727160517590000e-8
2.831365815210001e-8 2.939552685980000e-8 3.051873253170001e-8 3.168485451650001e-8
3.289553249880000e-8 3.415246880369999e-8 3.545743078980000e-8 3.681225333259999e-8
3.821884140400000e-8 3.967917274910000e-8 4.119530066630000e-8 4.276935689230000e-8
4.440355459890000e-8 4.610019150250000e-8 4.786165309349999e-8 4.969041598860001e-8
5.158905141070001e-8 5.356022880290000e-8 5.560671957880000e-8 5.773140101729998e-8
5.993726030530000e-8 6.222739873520001e-8 6.460503606260000e-8 6.707351502980003e-8
6.963630606270001e-8 7.229701214669999e-8 7.505937388820001e-8 7.792727477060000e-8
8.090474660930001e-8 8.399597521590000e-8 8.720530627850000e-8 9.053725146640001e-8
9.399649476720001e-8 9.758789906640001e-8 1.013165129780000e-7 1.051875779360000e-7
1.092065355540000e-7 1.133790352710000e-7 1.177109422830000e-7 1.222083457820000e-7
1.268775675050000e-7 1.317251706120000e-7 1.367579689040000e-7 1.419830363880000e-7
1.474077172110000e-7 1.530396359710000e-7 1.588867084230000e-7 1.649571525910000e-7
1.712595003020000e-7 1.778026091700000e-7 1.845956750230000e-7 1.916482448140000e-7
1.989702300210000e-7 2.065719205550001e-7 2.144639992060000e-7 2.226575566310000e-7
2.311641069169999e-7 2.399956037430000e-7 2.491644571450000e-7 2.586835509350001e-7
2.685662607719999e-7 2.788264729250000e-7 2.894786037579999e-7 3.005376199480001e-7
3.120190594770000e-7 3.239390534240000e-7 3.363143485890000e-7 3.491623309760000e-7
3.625010501709999e-7 3.763492446500000e-7 3.907263680480000e-7 4.056526164330000e-7
4.211489566150000e-7 4.372371555330000e-7 4.539398107590000e-7 4.712803821740000e-7
4.892832248310000e-7 5.079736230880001e-7 5.273778260260000e-7 5.475230842240000e-7
5.684376879229999e-7 5.901510066580000e-7 6.126935303780002e-7 6.360969121479999e-7
6.603940124620000e-7 6.856189452469998e-7 7.118071256169999e-7 7.389953194409999e-7
7.672216947910000e-7 7.965258753559999e-7 8.269489958730000e-7 8.585337596760001e-7
8.913244984220000e-7 9.253672340920000e-7 9.607097433429995e-7 9.974016243070004e-7
1.035494365920000e-6 1.075041419910000e-6 1.116098275440000e-6 1.158722536720000e-6
1.202974003390000e-6 1.248914754140000e-6 1.296609233310000e-6 1.346124340960000e-6
1.397529526210000e-6 1.450896884180000e-6 1.506301256610000e-6 1.563820336280000e-6
1.623534775380000e-6 1.685528297980000e-6 1.749887816810000e-6 1.816703554360000e-6
1.886069168670000e-6 1.958081883820000e-6 2.032842625350000e-6 2.110456160860000e-6
2.191031245840000e-6 2.274680775100000e-6 2.361521939860000e-6 2.451676390810000e-6
2.545270407290000e-6 2.642435072900000e-6 2.743306457730000e-6 2.848025807410000e-6
2.956739739390000e-6 3.069600446550000e-6 3.186765908470001e-6 3.308400110740000e-6
3.434673272450000e-6 3.565762082290000e-6 3.701849943520000e-6 3.843127228180000e-6
3.989791540819999e-6 4.142047992159999e-6 4.300109483070000e-6 4.464196999169999e-6
4.634539916489999e-6 4.811376318650000e-6 4.994953325849999e-6 5.185527436330001e-6
5.383364880469999e-6 5.588741988230000e-6 5.801945570390000e-6 6.023273313959999e-6
6.253034192430000e-6 6.491548891340000e-6 6.739150249740000e-6 6.996183718150001e-6
7.263007833550001e-6 7.539994712170000e-6 7.827530560530000e-6 8.126016205610000e-6
8.435867644659998e-6 8.757516615509999e-6 9.091411188069999e-6 9.438016377700000e-6
9.797814781490001e-6 1.017130723800000e-5 1.055901351150000e-5 1.096147300130000e-5
1.137924547810000e-5 1.181291184630000e-5 1.226307493540000e-5 1.273036032030000e-5
1.321541717180000e-5 1.371891913860000e-5 1.424156526120000e-5 1.478408092000000e-5
1.534721881790000e-5 1.593175999850000e-5 1.653851490300000e-5 1.716832446350000e-5
1.782206123870000e-5 1.850063058890000e-5 1.920497189530000e-5 1.993605982280000e-5
2.069490562930000e-5 2.148255852210000e-5 2.230010706340000e-5 2.314868062700000e-5
2.402945090780000e-5 2.494363348500000e-5 2.589248944200000e-5 2.687732704520001e-5
2.789950348200000e-5 2.896042666170000e-5 3.006155708070000e-5 3.120440975470000e-5
3.239055621890000e-5 3.362162660010000e-5 3.489931176220000e-5 3.622536552770000e-5
3.760160697750001e-5 3.902992283220000e-5 4.051226991730000e-5 4.205067771410000e-5
4.364725100150000e-5 4.530417258840000e-5 4.702370614269999e-5 4.880819911780000e-5
5.066008578110001e-5 5.258189034700001e-5 5.457623021750000e-5 5.664581933519999e-5
5.879347164970000e-5 6.102210470379999e-5 6.333474334100000e-5 6.573452353859999e-5
6.822469637099999e-5 7.080863210600001e-5 7.348982443820001e-5 7.627189486489999e-5
7.915859720640000e-5 8.215382227680001e-5 8.526160270869999e-5 8.848611793620000e-5
9.183169934100000e-5 9.530283556560001e-5 9.890417799849999e-5 1.026405464360000e-4
1.065169349250000e-4 1.105385177930000e-4 1.147106558650000e-4 1.190389028830000e-4
1.235290121150000e-4 1.281869431850000e-4 1.330188690940000e-4 1.380311834750000e-4
1.432305080490000e-4 1.486237003280000e-4 1.542178615240000e-4 1.600203447100000e-4
1.660387632130000e-4 1.722809992500000e-4 1.787552128180000e-4 1.854698508280000e-4
1.924336565080000e-4 1.996556790560000e-4 2.071452835630000e-4 2.149121612100000e-4
2.229663397320000e-4 2.313181941550000e-4 2.399784578250000e-4 2.489582337020000e-4
2.582690059550000e-4 2.679226518260000e-4 2.779314537970000e-4 2.883081120370000e-4
2.990657571380000e-4 3.102179631389999e-4 3.217787608440000e-4 3.337626514190000e-4
3.461846202750001e-4 3.590601512310000e-4 3.724052409570000e-4 3.862364136790000e-4
4.005707361620001e-4 4.154258329340000e-4 4.308199017740000e-4 4.467717294260001e-4
4.633007075490000e-4 4.804268488719999e-4 4.981708035560001e-4 5.165538757279999e-4
5.355980401860000e-4 5.553259592390001e-4 5.757609996730000e-4 5.969272498020000e-4
6.188495365890000e-4 6.415534427970000e-4 6.650653241420001e-4 6.894123264080000e-4
7.146224024780000e-4 7.407243292530000e-4 7.677477243920000e-4 7.957230628309999e-4
8.246816930240000e-4 8.546558528469999e-4 8.856786850870000e-4 9.177842524679999e-4
9.510075521120001e-4 9.853845293700001e-4 1.020952090930000e-3 1.057748117110000e-3
1.095811473230000e-3 1.135182019930000e-3 1.175900622440000e-3 1.218009158410000e-3
1.261550524540000e-3 1.306568641530000e-3 1.353108457400000e-3 1.401215948920000e-3
1.450938121100000e-3 1.502323004410000e-3 1.555419649600000e-3 1.610278120030000e-3
1.666949481100000e-3 1.725485786670000e-3 1.785940062270000e-3 1.848366284700000e-3
1.912819357920000e-3 1.979355084850000e-3 2.048030134760000e-3 2.118902006140000e-3
2.192028984350000e-3 2.267470094180000e-3 2.345285046529999e-3 2.425534179130000e-3
2.508278390750001e-3 2.593579068630000e-3 2.681498008500000e-3 2.772097327020000e-3
2.865439365890000e-3 2.961586587420000e-3 3.060601460870000e-3 3.162546339140000e-3
3.267483325290000e-3 3.375474128300000e-3 3.486579907529999e-3 3.600861105350000e-3
3.718377267230000e-3 3.839186848880000e-3 3.963347009630000e-3 4.090913391599999e-3
4.221939883840001e-3 4.356478371050000e-3 4.494578466020000e-3 4.636287225279999e-3
4.781648847270001e-3 4.930704352409999e-3 5.083491244519999e-3 5.240043152880000e-3
5.400389454400000e-3 5.564554875369999e-3 5.732559072210000e-3 5.904416190800000e-3
6.080134403840000e-3 6.259715426020001e-3 6.443154006469999e-3 6.630437398420000e-3
6.821544805800000e-3 7.016446806679999e-3 7.215104753660000e-3 7.417470151310001e-3
7.623484010900000e-3 7.833076182870000e-3 8.046164667639999e-3 8.262654905480000e-3
8.482439046470001e-3 8.705395201540000e-3 8.931386676219999e-3 9.160261188600000e-3
9.391850073520001e-3 9.625967475080001e-3 9.862409530210002e-3 1.010095354610000e-2
1.034135717460000e-2 1.058335758780000e-2 1.082667065790000e-2 1.107099014690000e-2
1.131598691060000e-2 1.156130812250000e-2 1.180657652330000e-2 1.205138970340000e-2
1.229531942450000e-2 1.253791098900000e-2 1.277868266480000e-2 1.301712517450000e-2
1.325270125970000e-2 1.348484532890000e-2 1.371296320140000e-2 1.393643195840000e-2
1.415459991260000e-2 1.436678671130000e-2 1.457228358400000e-2 1.477035375030000e-2
1.496023300290000e-2 1.514113047960000e-2 1.531222964060000e-2 1.547268946830000e-2
1.562164590350000e-2 1.575821353660000e-2 1.588148756990000e-2 1.599054606630000e-2
1.608445250270000e-2 1.616225864180000e-2 1.622300773970000e-2 1.626573810150000e-2
1.628948700030000e-2 1.629329496980000e-2 1.627621048170000e-2 1.623729501650000e-2
1.617562853190000e-2 1.609031533430000e-2 1.598049035160000e-2 1.584532580460000e-2
1.568403826920000e-2 1.549589611780000e-2 1.528022732180000e-2 1.503642759460000e-2
1.476396884480000e-2 1.446240790550000e-2 1.413139549870000e-2 1.377068538370000e-2
1.338014363470000e-2 1.295975798010000e-2 1.250964713070000e-2 1.203007001390000e-2
1.152143482080000e-2 1.098430776590000e-2 1.041942144880000e-2 9.827682696770001e-3
9.210179761010002e-3 8.568188729150000e-3 7.903179008670000e-3 7.216817730120001e-3
6.510972912340001e-3 5.787715227890001e-3 5.049318203870000e-3 4.298256692600000e-3
3.537203448020000e-3 2.769023647310000e-3 1.996767204500000e-3 1.223658732320000e-3
4.530850223770000e-4 -3.114200692180000e-4 -1.066193422140000e-3 -1.807463204110000e-3
-2.531372210730000e-3 -3.234003994400000e-3 -3.911411744000000e-3 -4.559649833760000e-3
-5.174807911109999e-3 -5.753047341450000e-3 -6.290639771329999e-3 -6.784007512700001e-3
-7.229765389230001e-3 -7.624763622880000e-3 -7.966131275180000e-3 -8.251319695530000e-3
-8.478145368290001e-3 -8.644831494569999e-3 -8.750047593860000e-3 -8.792946368050000e-3
-8.773197037230000e-3 -8.691014335659998e-3 -8.547182348740002e-3 -8.343072380750000e-3
-8.080654069990000e-3 -7.762499014230000e-3 -7.391776237260000e-3 -6.972238917369999e-3
-6.508201911790001e-3 -6.004509746710001e-3 -5.466494901440000e-3 -4.899926394300000e-3
-4.310948875860000e-3 -3.706012649050000e-3 -3.091795260700000e-3 -2.475115540820000e-3
-1.862841198300000e-3 -1.261791308370000e-3 -6.786352400549999e-4 -1.197897641180000e-4
4.086837548070000e-4 9.011800522760000e-4 1.352646432690000e-3 1.758672870380000e-3
2.115573626830000e-3 2.420458353910000e-3 2.671290801740000e-3 2.866933459640000e-3
3.007176727880000e-3 3.092751539000000e-3 3.125324713130000e-3 3.107476729100000e-3
3.042662009450000e-3 2.935152236050000e-3 2.789963616550000e-3 2.612769393240000e-3
2.409799206460000e-3 2.187727178810000e-3 1.953550758980000e-3 1.714462444180000e-3
1.477716477770000e-3 1.249826571620000e-3 1.034569127910000e-3 8.350922712960001e-4
6.544749463630000e-4 4.955539535620001e-4 3.607160005820000e-4 2.512356456230000e-4
1.658955211780000e-4 1.023802490130000e-4 5.781241904550001e-5 2.888951620820000e-5
1.206312683160000e-5 3.762872121760000e-6 6.669116656140000e-7 2.010560236270000e-8
8.673617379879996e-19 0.000000000000000e0 0.000000000000000e0 0.000000000000000e0
0.000000000000000e0 0.000000000000000e0 0.000000000000000e0 0.000000000000000e0
0.000000000000000e0 0.000000000000000e0 0.000000000000000e0 0.000000000000000e0
0.000000000000000e0 0.000000000000000e0 0.000000000000000e0 0.000000000000000e0
0.000000000000000e0 0.000000000000000e0 0.000000000000000e0 0.000000000000000e0
0.000000000000000e0 0.000000000000000e0 0.000000000000000e0 0.000000000000000e0
0.000000000000000e0 0.000000000000000e0 0.000000000000000e0 0.000000000000000e0
0.000000000000000e0 0.000000000000000e0 0.000000000000000e0 0.000000000000000e0
0.000000000000000e0 0.000000000000000e0 0.000000000000000e0 0.000000000000000e0
0.000000000000000e0 0.000000000000000e0 0.000000000000000e0 0.000000000000000e0
0.000000000000000e0 0.000000000000000e0 0.000000000000000e0 0.000000000000000e0
0.000000000000000e0 0.000000000000000e0 0.000000000000000e0 0.000000000000000e0
0.000000000000000e0 0.000000000000000e0 0.000000000000000e0 0.000000000000000e0
0.000000000000000e0 0.000000000000000e0 0.000000000000000e0 0.000000000000000e0
0.000000000000000e0 0.000000000000000e0 0.000000000000000e0 0.000000000000000e0
0.000000000000000e0 0.000000000000000e0 0.000000000000000e0 0.000000000000000e0
0.000000000000000e0 0.000000000000000e0 0.000000000000000e0 0.000000000000000e0
0.000000000000000e0 0.000000000000000e0 0.000000000000000e0 0.000000000000000e0
0.000000000000000e0 0.000000000000000e0 0.000000000000000e0 0.000000000000000e0
0.000000000000000e0 0.000000000000000e0 0.000000000000000e0 0.000000000000000e0
0.000000000000000e0 0.000000000000000e0 0.000000000000000e0 0.000000000000000e0
0.000000000000000e0 0.000000000000000e0 0.000000000000000e0 0.000000000000000e0
0.000000000000000e0 0.000000000000000e0 0.000000000000000e0 0.000000000000000e0
0.000000000000000e0 0.000000000000000e0 0.000000000000000e0 0.000000000000000e0
0.000000000000000e0 0.000000000000000e0 0.000000000000000e0 0.000000000000000e0
0.000000000000000e0 0.000000000000000e0 0.000000000000000e0 0.000000000000000e0
0.000000000000000e0 0.000000000000000e0 0.000000000000000e0 0.000000000000000e0
0.000000000000000e0 0.000000000000000e0 0.000000000000000e0 0.000000000000000e0
0.000000000000000e0 0.000000000000000e0 0.000000000000000e0 0.000000000000000e0
0.000000000000000e0 0.000000000000000e0 0.000000000000000e0 0.000000000000000e0
0.000000000000000e0 0.000000000000000e0 0.000000000000000e0 0.000000000000000e0
0.000000000000000e0 0.000000000000000e0 0.000000000000000e0 0.000000000000000e0
0.000000000000000e0 0.000000000000000e0 0.000000000000000e0 0.000000000000000e0
0.000000000000000e0 0.000000000000000e0 0.000000000000000e0 0.000000000000000e0
0.000000000000000e0 0.000000000000000e0 0.000000000000000e0 0.000000000000000e0
0.000000000000000e0 0.000000000000000e0 0.000000000000000e0 0.000000000000000e0
0.000000000000000e0 0.000000000000000e0 0.000000000000000e0 0.000000000000000e0
0.000000000000000e0 0.000000000000000e0 0.000000000000000e0 0.000000000000000e0
0.000000000000000e0 0.000000000000000e0 0.000000000000000e0 0.000000000000000e0
0.000000000000000e0 0.000000000000000e0 0.000000000000000e0 0.000000000000000e0
0.000000000000000e0 0.000000000000000e0 0.000000000000000e0 0.000000000000000e0
0.000000000000000e0 0.000000000000000e0 0.000000000000000e0 0.000000000000000e0
0.000000000000000e0 0.000000000000000e0 0.000000000000000e0 0.000000000000000e0
0.000000000000000e0 0.000000000000000e0 0.000000000000000e0 0.000000000000000e0
0.000000000000000e0 0.000000000000000e0 0.000000000000000e0 0.000000000000000e0
0.000000000000000e0 0.000000000000000e0 0.000000000000000e0 0.000000000000000e0
0.000000000000000e0 0.000000000000000e0 0.000000000000000e0 0.000000000000000e0
0.000000000000000e0 0.000000000000000e0 0.000000000000000e0 0.000000000000000e0
0.000000000000000e0 0.000000000000000e0 0.000000000000000e0 0.000000000000000e0
0.000000000000000e0 0.000000000000000e0 0.000000000000000e0 0.000000000000000e0
0.000000000000000e0 0.000000000000000e0 0.000000000000000e0 0.000000000000000e0
0.000000000000000e0 0.000000000000000e0 0.000000000000000e0 0.000000000000000e0
0.000000000000000e0 0.000000000000000e0 0.000000000000000e0 0.000000000000000e0
0.000000000000000e0 0.000000000000000e0 0.000000000000000e0 0.000000000000000e0
0.000000000000000e0 0.000000000000000e0 0.000000000000000e0 0.000000000000000e0
0.000000000000000e0 0.000000000000000e0 0.000000000000000e0 0.000000000000000e0
0.000000000000000e0 0.000000000000000e0 0.000000000000000e0 0.000000000000000e0
0.000000000000000e0 0.000000000000000e0 0.000000000000000e0 0.000000000000000e0
0.000000000000000e0 0.000000000000000e0 0.000000000000000e0 0.000000000000000e0
0.000000000000000e0 0.000000000000000e0 0.000000000000000e0 0.000000000000000e0
0.000000000000000e0 0.000000000000000e0 0.000000000000000e0 0.000000000000000e0
0.000000000000000e0 0.000000000000000e0 0.000000000000000e0 0.000000000000000e0
0.000000000000000e0 0.000000000000000e0 0.000000000000000e0 0.000000000000000e0
0.000000000000000e0 0.000000000000000e0 0.000000000000000e0 0.000000000000000e0
0.000000000000000e0 0.000000000000000e0 0.000000000000000e0 0.000000000000000e0
0.000000000000000e0 0.000000000000000e0 0.000000000000000e0 0.000000000000000e0
0.000000000000000e0 0.000000000000000e0 0.000000000000000e0 0.000000000000000e0
0.000000000000000e0 0.000000000000000e0 0.000000000000000e0 0.000000000000000e0
0.000000000000000e0 0.000000000000000e0 0.000000000000000e0 0.000000000000000e0
0.000000000000000e0 0.000000000000000e0 0.000000000000000e0 0.000000000000000e0
0.000000000000000e0 0.000000000000000e0 0.000000000000000e0 0.000000000000000e0
0.000000000000000e0 0.000000000000000e0 0.000000000000000e0 0.000000000000000e0
0.000000000000000e0 0.000000000000000e0 0.000000000000000e0 0.000000000000000e0
0.000000000000000e0 0.000000000000000e0 0.000000000000000e0 0.000000000000000e0
0.000000000000000e0 0.000000000000000e0 0.000000000000000e0 0.000000000000000e0
0.000000000000000e0 0.000000000000000e0 0.000000000000000e0 0.000000000000000e0
0.000000000000000e0 0.000000000000000e0 0.000000000000000e0 0.000000000000000e0
0.000000000000000e0 0.000000000000000e0 0.000000000000000e0 0.000000000000000e0
0.000000000000000e0 0.000000000000000e0 0.000000000000000e0 0.000000000000000e0
0.000000000000000e0 0.000000000000000e0 0.000000000000000e0 0.000000000000000e0
0.000000000000000e0 0.000000000000000e0 0.000000000000000e0 0.000000000000000e0
0.000000000000000e0 0.000000000000000e0 0.000000000000000e0 0.000000000000000e0
0.000000000000000e0 0.000000000000000e0 0.000000000000000e0 0.000000000000000e0
0.000000000000000e0
</PP_QIJ.1.4>
<PP_QIJ.2.2 first_index="2" second_index="2" composite_index="3">
-2.683236884009999e-8 -2.751163347109999e-8 -2.820809376710000e-8 -2.892218503830000e-8
-2.965435361500001e-8 -3.040505712620000e-8 -3.117476478610000e-8 -3.196395768680000e-8
-3.277312909950000e-8 -3.360278478250000e-8 -3.445344329770000e-8 -3.532563633399999e-8
-3.621990904050000e-8 -3.713682036660000e-8 -3.807694341149999e-8 -3.904086578259999e-8
-4.002918996269999e-8 -4.104253368620000e-8 -4.208153032600001e-8 -4.314682928850000e-8
-4.423909642020001e-8 -4.535901442319999e-8 -4.650728328260000e-8 -4.768462070370000e-8
-4.889176256040001e-8 -5.012946335540000e-8 -5.139849669179998e-8 -5.269965575639999e-8
-5.403375381579999e-8 -5.540162472440000e-8 -5.680412344570000e-8 -5.824212658670000e-8
-5.971653294599998e-8 -6.122826407509999e-8 -6.277826485479999e-8 -6.436750408570000e-8
-6.599697509360000e-8 -6.766769635049998e-8 -6.938071211110000e-8 -7.113709306560000e-8
-7.293793700880000e-8 -7.478436952610000e-8 -7.667754469760000e-8 -7.861864581860001e-8
-8.060888614010000e-8 -8.264950962630000e-8 -8.474179173270000e-8 -8.688704020299999e-8
-8.908659588650004e-8 -9.134183357649999e-8 -9.365416286899999e-8 -9.602502904419998e-8
-9.845591396989999e-8 -1.009483370270000e-7 -1.035038560610000e-7 -1.061240683520000e-7
-1.088106116180000e-7 -1.115651650340000e-7 -1.143894502850000e-7 -1.172852326390000e-7
-1.202543220540000e-7 -1.232985743060000e-7 -1.264198921500000e-7 -1.296202265090000e-7
-1.329015776950000e-7 -1.362659966580000e-7 -1.397155862680000e-7 -1.432525026270000e-7
-1.468789564220000e-7 -1.505972143030000e-7 -1.544096002990000e-7 -1.583184972730000e-7
-1.623263484110000e-7 -1.664356587480000e-7 -1.706489967340000e-7 -1.749689958380000e-7
-1.793983561990000e-7 -1.839398463070001e-7 -1.885963047390000e-7 -1.933706419280000e-7
-1.982658419880001e-7 -2.032849645730000e-7 -2.084311467950000e-7 -2.137076051810000e-7
-2.191176376849999e-7 -2.246646257480000e-7 -2.303520364130000e-7 -2.361834244920000e-7
-2.421624347870000e-7 -2.482928043680000e-7 -2.545783649100000e-7 -2.610230450860000e-7
-2.676308730240000e-7 -2.744059788250000e-7 -2.813525971430000e-7 -2.884750698320000e-7
-2.957778486630000e-7 -3.032654981000000e-7 -3.109426981590000e-7 -3.188142473310001e-7
-3.268850655800001e-7 -3.351601974189999e-7 -3.436448150650000e-7 -3.523442216680000e-7
-3.612638546270000e-7 -3.704092889910000e-7 -3.797862409410000e-7 -3.894005713620001e-7
-3.992582895100000e-7 -4.093655567620001e-7 -4.197286904730001e-7 -4.303541679220000e-7
-4.412486303600000e-7 -4.524188871610001e-7 -4.638719200800001e-7 -4.756148876119999e-7
-4.876551294730000e-7 -5.000001711820000e-7 -5.126577287680000e-7 -5.256357135900000e-7
-5.389422372830000e-7 -5.525856168289999e-7 -5.665743797540000e-7 -5.809172694590002e-7
-5.956232506840000e-7 -6.107015151090001e-7 -6.261614871040000e-7 -6.420128296160000e-7
-6.582654502090000e-7 -6.749295072579999e-7 -6.920154162939999e-7 -7.095338565200002e-7
-7.274957774810000e-7 -7.459124059090000e-7 -7.647952527430001e-7 -7.841561203170002e-7
-8.040071097439998e-7 -8.243606284730001e-7 -8.452293980489998e-7 -8.666264620600000e-7
-8.885651942939999e-7 -9.110593070949999e-7 -9.341228599309998e-7 -9.577702681879998e-7
-9.820163121740000e-7 -1.006876146360000e-6 -1.032365308850000e-6 -1.058499731100000e-6
-1.085295747850000e-6 -1.112770107380000e-6 -1.140939981920000e-6 -1.169822978440000e-6
-1.199437149620000e-6 -1.229801005120000e-6 -1.260933523210000e-6 -1.292854162550000e-6
-1.325582874420000e-6 -1.359140115150000e-6 -1.393546858930000e-6 -1.428824610890000e-6
-1.464995420580000e-6 -1.502081895720000e-6 -1.540107216330000e-6 -1.579095149230000e-6
-1.619070062920000e-6 -1.660056942730000e-6 -1.702081406540000e-6 -1.745169720710000e-6
-1.789348816530000e-6 -1.834646307060000e-6 -1.881090504360000e-6 -1.928710437200000e-6
-1.977535869240000e-6 -2.027597317550000e-6 -2.078926071760000e-6 -2.131554213570000e-6
-2.185514636830000e-6 -2.240841068070000e-6 -2.297568087620000e-6 -2.355731151160001e-6
-2.415366611960000e-6 -2.476511743510000e-6 -2.539204762910000e-6 -2.603484854670000e-6
-2.669392195250000e-6 -2.736967978179999e-6 -2.806254439740000e-6 -2.877294885440000e-6
-2.950133717030000e-6 -3.024816460260000e-6 -3.101389793340000e-6 -3.179901576130000e-6
-3.260400880000000e-6 -3.342938018570000e-6 -3.427564579090001e-6 -3.514333454700000e-6
-3.603298877529999e-6 -3.694516452530000e-6 -3.788043192239999e-6 -3.883937552459999e-6
-3.982259468730001e-6 -4.083070393830001e-6 -4.186433336130001e-6 -4.292412899049999e-6
-4.401075321360000e-6 -4.512488518600000e-6 -4.626722125560001e-6 -4.743847539730000e-6
-4.863937965980000e-6 -4.987068462279999e-6 -5.113315986620001e-6 -5.242759445080000e-6
-5.375479741190000e-6 -5.511559826420001e-6 -5.651084752099999e-6 -5.794141722500000e-6
-5.940820149360000e-6 -6.091211707779999e-6 -6.245410393479998e-6 -6.403512581539999e-6
-6.565617086670001e-6 -6.731825224890001e-6 -6.902240876930001e-6 -7.076970553050000e-6
-7.256123459679999e-6 -7.439811567620001e-6 -7.628149682020000e-6 -7.821255514119998e-6
-8.019249754810001e-6 -8.222256150050001e-6 -8.430401578180000e-6 -8.643816129229998e-6
-8.862633186189999e-6 -9.086989508340000e-6 -9.317025316759999e-6 -9.552884381890001e-6
-9.794714113390000e-6 -1.004266565230000e-5 -1.029689396530000e-5 -1.055755794180000e-5
-1.082482049300000e-5 -1.109884865380000e-5 -1.137981368710000e-5 -1.166789119090000e-5
-1.196326120790000e-5 -1.226610833800000e-5 -1.257662185370000e-5 -1.289499581840000e-5
-1.322142920750000e-5 -1.355612603270000e-5 -1.389929546980000e-5 -1.425115198880000e-5
-1.461191548850000e-5 -1.498181143340000e-5 -1.536107099480000e-5 -1.574993119510000e-5
-1.614863505610000e-5 -1.655743175040000e-5 -1.697657675730000e-5 -1.740633202260000e-5
-1.784696612180000e-5 -1.829875442810000e-5 -1.876197928440000e-5 -1.923693017950000e-5
-1.972390392920000e-5 -2.022320486130000e-5 -2.073514500620000e-5 -2.126004429120000e-5
-2.179823074070000e-5 -2.235004068089999e-5 -2.291581894980000e-5 -2.349591911280000e-5
-2.409070368310000e-5 -2.470054434840000e-5 -2.532582220280000e-5 -2.596692798500000e-5
-2.662426232170001e-5 -2.729823597860000e-5 -2.798927011600000e-5 -2.869779655240000e-5
-2.942425803359999e-5 -3.016910850940000e-5 -3.093281341680000e-5 -3.171584997060000e-5
-3.251870746120000e-5 -3.334188756010001e-5 -3.418590463300000e-5 -3.505128606070000e-5
-3.593857256799999e-5 -3.684831856170000e-5 -3.778109247610000e-5 -3.873747712760000e-5
-3.971807007870000e-5 -4.072348401039999e-5 -4.175434710469999e-5 -4.281130343610000e-5
-4.389501337360000e-5 -4.500615399240000e-5 -4.614541949630000e-5 -4.731352165040001e-5
-4.851119022470000e-5 -4.973917344969999e-5 -5.099823848200000e-5 -5.228917188330000e-5
-5.361278011000000e-5 -5.496989001599999e-5 -5.636134936790000e-5 -5.778802737340001e-5
-5.925081522240000e-5 -6.075062664219999e-5 -6.228839846690002e-5 -6.386509122020000e-5
-6.548168971379999e-5 -6.713920366069999e-5 -6.883866830280001e-5 -7.058114505599999e-5
-7.236772217040000e-5 -7.419951540680001e-5 -7.607766873130001e-5 -7.800335502630000e-5
-7.997777681990001e-5 -8.200216703300001e-5 -8.407778974599999e-5 -8.620594098390001e-5
-8.838794952099999e-5 -9.062517770680000e-5 -9.291902231100000e-5 -9.527091539080001e-5
-9.768232517959998e-5 -1.001547569970000e-4 -1.026897541830000e-4 -1.052888990550000e-4
-1.079538138860000e-4 -1.106861619120000e-4 -1.134876483620000e-4 -1.163600215120000e-4
-1.193050737660000e-4 -1.223246427670000e-4 -1.254206125310000e-4 -1.285949146120000e-4
-1.318495292960000e-4 -1.351864868210000e-4 -1.386078686290000e-4 -1.421158086540000e-4
-1.457124946330000e-4 -1.494001694550000e-4 -1.531811325410000e-4 -1.570577412580000e-4
-1.610324123690000e-4 -1.651076235180000e-4 -1.692859147500000e-4 -1.735698900670000e-4
-1.779622190300000e-4 -1.824656383840000e-4 -1.870829537440000e-4 -1.918170412990000e-4
-1.966708495760000e-4 -2.016474012370000e-4 -2.067497949180000e-4 -2.119812071210000e-4
-2.173448941400000e-4 -2.228441940450000e-4 -2.284825287000000e-4 -2.342634058460000e-4
-2.401904212130000e-4 -2.462672607020000e-4 -2.524977026060000e-4 -2.588856198829999e-4
-2.654349824950000e-4 -2.721498597840000e-4 -2.790344229180000e-4 -2.860929473860000e-4
-2.933298155550000e-4 -3.007495192810000e-4 -3.083566625870000e-4 -3.161559643970000e-4
-3.241522613330000e-4 -3.323505105770000e-4 -3.407557927990000e-4 -3.493733151480000e-4
-3.582084143120001e-4 -3.672665596420000e-4 -3.765533563560000e-4 -3.860745488010000e-4
-3.958360237920000e-4 -4.058438140290000e-4 -4.161041015780000e-4 -4.266232214350000e-4
-4.374076651650000e-4 -4.484640846150000e-4 -4.597992957080000e-4 -4.714202823210000e-4
-4.833342002320000e-4 -4.955483811650000e-4 -5.080703369040000e-4 -5.209077634989999e-4
-5.340685455549999e-4 -5.475607606070000e-4 -5.613926835840001e-4 -5.755727913569999e-4
-5.901097673820001e-4 -6.050125064300000e-4 -6.202901194079999e-4 -6.359519382720000e-4
-6.520075210380000e-4 -6.684666568780000e-4 -6.853393713210000e-4 -7.026359315420000e-4
-7.203668517510000e-4 -7.385428986850001e-4 -7.571750971840001e-4 -7.762747358870001e-4
-7.958533730079999e-4 -8.159228422320000e-4 -8.364952587000001e-4 -8.575830251040001e-4
-8.791988378869998e-4 -9.013556935470000e-4 -9.240668950500000e-4 -9.473460583530001e-4
-9.712071190310001e-4 -9.956643390270001e-4 -1.020732313500000e-3 -1.046425977820000e-3
-1.072760614620000e-3 -1.099751861040000e-3 -1.127415716070000e-3 -1.155768547960000e-3
-1.184827101850000e-3 -1.214608507510000e-3 -1.245130287120000e-3 -1.276410363350000e-3
-1.308467067440000e-3 -1.341319147550000e-3 -1.374985777150000e-3 -1.409486563660000e-3
-1.444841557200000e-3 -1.481071259590000e-3 -1.518196633430000e-3 -1.556239111420000e-3
-1.595220605910000e-3 -1.635163518620000e-3 -1.676090750530000e-3 -1.718025712120000e-3
-1.760992333720000e-3 -1.805015076180000e-3 -1.850118941760000e-3 -1.896329485320000e-3
-1.943672825780000e-3 -1.992175657840000e-3 -2.041865264070000e-3 -2.092769527230000e-3
-2.144916942980000e-3 -2.198336632870000e-3 -2.253058357750000e-3 -2.309112531410000e-3
-2.366530234670000e-3 -2.425343229760000e-3 -2.485583975110000e-3 -2.547285640420000e-3
-2.610482122110000e-3 -2.675208059130000e-3 -2.741498848970000e-3 -2.809390664070000e-3
-2.878920468430000e-3 -2.950126034420000e-3 -3.023045959810000e-3 -3.097719684830000e-3
-3.174187509360000e-3 -3.252490610020000e-3 -3.332671057180000e-3 -3.414771831660000e-3
-3.498836841180000e-3 -3.584910936250000e-3 -3.673039925440000e-3 -3.763270589849999e-3
-3.855650696600000e-3 -3.950229011130000e-3 -4.047055308039999e-3 -4.146180380370001e-3
-4.247656046910000e-3 -4.351535157400000e-3 -4.457871595220000e-3 -4.566720277389999e-3
-4.678137151520001e-3 -4.792179189350000e-3 -4.908904376710001e-3 -5.028371699460000e-3
-5.150641125120002e-3 -5.275773580020000e-3 -5.403830921560000e-3 -5.534875905470001e-3
-5.668972147779999e-3 -5.806184081440000e-3 -5.946576907419999e-3 -6.090216540400000e-3
-6.237169548970001e-3 -6.387503090650000e-3 -6.541284841880000e-3 -6.698582923510000e-3
-6.859465822150001e-3 -7.024002308110000e-3 -7.192261350829999e-3 -7.364312032490000e-3
-7.540223461149999e-3 -7.720064684500000e-3 -7.903904605650000e-3 -8.091811902390001e-3
-8.283854951570000e-3 -8.480101760220000e-3 -8.680619905050001e-3 -8.885476482089999e-3
-9.094738067900000e-3 -9.308470693990001e-3 -9.526739835430000e-3 -9.749610414790000e-3
-9.977146821729999e-3 -1.020941294830000e-2 -1.044647223960000e-2 -1.068838775750000e-2
-1.093522225680000e-2 -1.118703826930000e-2 -1.144389819240000e-2 -1.170586437660000e-2
-1.197299920560000e-2 -1.224536516220000e-2 -1.252302487010000e-2 -1.280604110240000e-2
-1.309447674700000e-2 -1.338839471580000e-2 -1.368785778810000e-2 -1.399292837450000e-2
-1.430366819110000e-2 -1.462013783230000e-2 -1.494239623460000e-2 -1.527050002310000e-2
-1.560450273720000e-2 -1.594445393430000e-2 -1.629039817680000e-2 -1.664237390920000e-2
-1.700041224010000e-2 -1.736453565060000e-2 -1.773475665380000e-2 -1.811107643870000e-2
-1.849348353700000e-2 -1.888195255700000e-2 -1.927644303000000e-2 -1.967689841980000e-2
-2.008324534500000e-2 -2.049539305780000e-2 -2.091323322200000e-2 -2.133664001830000e-2
-2.176547059360000e-2 -2.219956585380000e-2 -2.263875157630000e-2 -2.308283979600000e-2
-2.353163039080000e-2 -2.398491276470000e-2 -2.444246750020000e-2 -2.490406782710000e-2
-2.536948073490000e-2 -2.583846754540000e-2 -2.631078375920000e-2 -2.678617800420000e-2
-2.726438993550000e-2 -2.774514698530000e-2 -2.822815991410000e-2 -2.871311719530000e-2
-2.919967835140000e-2 -2.968746645810000e-2 -3.017606013590000e-2 -3.066498544340000e-2
-3.115370816860001e-2 -3.164162707329999e-2 -3.212806866120000e-2 -3.261228401780000e-2
-3.309344818240000e-2 -3.357066236980000e-2 -3.404295915190000e-2 -3.450931044580000e-2
-3.496863785540000e-2 -3.541982458710000e-2 -3.586172785320000e-2 -3.629319041640000e-2
-3.671304975860000e-2 -3.712014332230000e-2 -3.751330840400000e-2 -3.789137560690000e-2
-3.825315527920000e-2 -3.859741707560000e-2 -3.892286361050000e-2 -3.922810007130000e-2
-3.951160250570000e-2 -3.977168816920000e-2 -4.000649168780001e-2 -4.021395072290001e-2
-4.039180423220000e-2 -4.053760525920000e-2 -4.064874849410000e-2 -4.072251075820000e-2
-4.075610031220000e-2 -4.074670879550000e-2 -4.069155805770000e-2 -4.058793353140000e-2
-4.043319645620000e-2 -4.022476937690000e-2 -3.996009286850000e-2 -3.963655608430000e-2
-3.925140886560000e-2 -3.880166794380000e-2 -3.828403319290000e-2 -3.769483095620000e-2
-3.702999939980000e-2 -3.628512533010000e-2 -3.545553328470000e-2 -3.453641711200000e-2
-3.352299355850000e-2 -3.241064902130000e-2 -3.119504707600000e-2 -2.987216766420000e-2
-2.843825970510000e-2 -2.688970644160000e-2 -2.522282413540000e-2 -2.343363512410000e-2
-2.151767018450000e-2 -1.946985736920000e-2 -1.728454173850000e-2 -1.495565281640000e-2
-1.247699870040000e-2 -9.842626324489999e-3 -7.047158020440001e-3 -4.086006652559999e-3
-9.553926365610000e-4 2.347864228170000e-3 5.826737072809999e-3 9.484459751539999e-3
1.332491771960000e-2 1.735281034540000e-2 2.157348760760000e-2 2.599246430440000e-2
3.061473296940000e-2 3.544409103520000e-2 4.048272586440000e-2 4.573123729070000e-2
5.118912816780000e-2 5.685560449939999e-2 6.273037157440000e-2 6.881406644139999e-2
7.510807281640000e-2 8.161370427030000e-2 8.833102983730001e-2 9.525782392390001e-2
1.023891304540000e-1 1.097176954220000e-1 1.172351170940000e-1 1.249331716120000e-1
1.328046078520000e-1 1.408429011740000e-1 1.490409662640000e-1 1.573894183600000e-1
1.658753068730000e-1 1.744820770370000e-1 1.831908593280000e-1 1.919823763680000e-1
2.008382934020000e-1 2.097410824800000e-1 2.186723667170000e-1 2.276107421680000e-1
2.365305339750000e-1 2.454024117490000e-1 2.541955180850000e-1 2.628796222110000e-1
2.714257048090000e-1 2.798045178310000e-1 2.879842637330000e-1 2.959293238900000e-1
3.036011749340000e-1 3.109607951410000e-1 3.179705491120000e-1 3.245940200580000e-1
3.307942085400000e-1 3.365321171770000e-1 3.417673405140000e-1 3.464601534230000e-1
3.505729611800000e-1 3.540697797590000e-1 3.569149016840000e-1 3.590730886390000e-1
3.605117497240000e-1 3.612026606090000e-1 3.611208518520000e-1 3.602421012370000e-1
3.585432866070000e-1 3.560068839980000e-1 3.526247317520000e-1 3.483954594420000e-1
3.433179858090000e-1 3.373906342450000e-1 3.306196777510000e-1 3.230271511230000e-1
3.146456510550000e-1 3.055052951400000e-1 2.956324200080000e-1 2.850653583890000e-1
2.738650248860000e-1 2.621010158390000e-1 2.498315349450000e-1 2.371105984460000e-1
2.240146327140000e-1 2.106433660710000e-1 1.970875263630000e-1 1.834163469200000e-1
1.697103566150000e-1 1.560818762480000e-1 1.426392193960000e-1 1.294552063500000e-1
1.166016233790000e-1 1.041848262320000e-1 9.230564107359999e-2 8.101681062470000e-2
7.036608337689999e-2 6.043621559300000e-2 5.129021018160000e-2 4.293463193879999e-2
3.538330724640000e-2 2.867805441530000e-2 2.281440471770000e-2 1.774415095570000e-2
1.345017171340000e-2 9.913180887890000e-3 7.054308804080001e-3 4.799523159920000e-3
3.104622271010000e-3 1.884576286390000e-3 1.040098709990000e-3 5.084798043190000e-4
2.122869015910000e-4 6.345414853120000e-5 8.948270653919998e-6 4.370372482430000e-7
0.000000000000000e0 0.000000000000000e0 0.000000000000000e0 0.000000000000000e0
0.000000000000000e0 0.000000000000000e0 0.000000000000000e0 0.000000000000000e0
0.000000000000000e0 0.000000000000000e0 0.000000000000000e0 0.000000000000000e0
0.000000000000000e0 0.000000000000000e0 0.000000000000000e0 0.000000000000000e0
0.000000000000000e0 0.000000000000000e0 0.000000000000000e0 0.000000000000000e0
0.000000000000000e0 0.000000000000000e0 0.000000000000000e0 0.000000000000000e0
0.000000000000000e0 0.000000000000000e0 0.000000000000000e0 0.000000000000000e0
0.000000000000000e0 0.000000000000000e0 0.000000000000000e0 0.000000000000000e0
0.000000000000000e0 0.000000000000000e0 0.000000000000000e0 0.000000000000000e0
0.000000000000000e0 0.000000000000000e0 0.000000000000000e0 0.000000000000000e0
0.000000000000000e0 0.000000000000000e0 0.000000000000000e0 0.000000000000000e0
0.000000000000000e0 0.000000000000000e0 0.000000000000000e0 0.000000000000000e0
0.000000000000000e0 0.000000000000000e0 0.000000000000000e0 0.000000000000000e0
0.000000000000000e0 0.000000000000000e0 0.000000000000000e0 0.000000000000000e0
0.000000000000000e0 0.000000000000000e0 0.000000000000000e0 0.000000000000000e0
0.000000000000000e0 0.000000000000000e0 0.000000000000000e0 0.000000000000000e0
0.000000000000000e0 0.000000000000000e0 0.000000000000000e0 0.000000000000000e0
0.000000000000000e0 0.000000000000000e0 0.000000000000000e0 0.000000000000000e0
0.000000000000000e0 0.000000000000000e0 0.000000000000000e0 0.000000000000000e0
0.000000000000000e0 0.000000000000000e0 0.000000000000000e0 0.000000000000000e0
0.000000000000000e0 0.000000000000000e0 0.000000000000000e0 0.000000000000000e0
0.000000000000000e0 0.000000000000000e0 0.000000000000000e0 0.000000000000000e0
0.000000000000000e0 0.000000000000000e0 0.000000000000000e0 0.000000000000000e0
0.000000000000000e0 0.000000000000000e0 0.000000000000000e0 0.000000000000000e0
0.000000000000000e0 0.000000000000000e0 0.000000000000000e0 0.000000000000000e0
0.000000000000000e0 0.000000000000000e0 0.000000000000000e0 0.000000000000000e0
0.000000000000000e0 0.000000000000000e0 0.000000000000000e0 0.000000000000000e0
0.000000000000000e0 0.000000000000000e0 0.000000000000000e0 0.000000000000000e0
0.000000000000000e0 0.000000000000000e0 0.000000000000000e0 0.000000000000000e0
0.000000000000000e0 0.000000000000000e0 0.000000000000000e0 0.000000000000000e0
0.000000000000000e0 0.000000000000000e0 0.000000000000000e0 0.000000000000000e0
0.000000000000000e0 0.000000000000000e0 0.000000000000000e0 0.000000000000000e0
0.000000000000000e0 0.000000000000000e0 0.000000000000000e0 0.000000000000000e0
0.000000000000000e0 0.000000000000000e0 0.000000000000000e0 0.000000000000000e0
0.000000000000000e0 0.000000000000000e0 0.000000000000000e0 0.000000000000000e0
0.000000000000000e0 0.000000000000000e0 0.000000000000000e0 0.000000000000000e0
0.000000000000000e0 0.000000000000000e0 0.000000000000000e0 0.000000000000000e0
0.000000000000000e0 0.000000000000000e0 0.000000000000000e0 0.000000000000000e0
0.000000000000000e0 0.000000000000000e0 0.000000000000000e0 0.000000000000000e0
0.000000000000000e0 0.000000000000000e0 0.000000000000000e0 0.000000000000000e0
0.000000000000000e0 0.000000000000000e0 0.000000000000000e0 0.000000000000000e0
0.000000000000000e0 0.000000000000000e0 0.000000000000000e0 0.000000000000000e0
0.000000000000000e0 0.000000000000000e0 0.000000000000000e0 0.000000000000000e0
0.000000000000000e0 0.000000000000000e0 0.000000000000000e0 0.000000000000000e0
0.000000000000000e0 0.000000000000000e0 0.000000000000000e0 0.000000000000000e0
0.000000000000000e0 0.000000000000000e0 0.000000000000000e0 0.000000000000000e0
0.000000000000000e0 0.000000000000000e0 0.000000000000000e0 0.000000000000000e0
0.000000000000000e0 0.000000000000000e0 0.000000000000000e0 0.000000000000000e0
0.000000000000000e0 0.000000000000000e0 0.000000000000000e0 0.000000000000000e0
0.000000000000000e0 0.000000000000000e0 0.000000000000000e0 0.000000000000000e0
0.000000000000000e0 0.000000000000000e0 0.000000000000000e0 0.000000000000000e0
0.000000000000000e0 0.000000000000000e0 0.000000000000000e0 0.000000000000000e0
0.000000000000000e0 0.000000000000000e0 0.000000000000000e0 0.000000000000000e0
0.000000000000000e0 0.000000000000000e0 0.000000000000000e0 0.000000000000000e0
0.000000000000000e0 0.000000000000000e0 0.000000000000000e0 0.000000000000000e0
0.000000000000000e0 0.000000000000000e0 0.000000000000000e0 0.000000000000000e0
0.000000000000000e0 0.000000000000000e0 0.000000000000000e0 0.000000000000000e0
0.000000000000000e0 0.000000000000000e0 0.000000000000000e0 0.000000000000000e0
0.000000000000000e0 0.000000000000000e0 0.000000000000000e0 0.000000000000000e0
0.000000000000000e0 0.000000000000000e0 0.000000000000000e0 0.000000000000000e0
0.000000000000000e0 0.000000000000000e0 0.000000000000000e0 0.000000000000000e0
0.000000000000000e0 0.000000000000000e0 0.000000000000000e0 0.000000000000000e0
0.000000000000000e0 0.000000000000000e0 0.000000000000000e0 0.000000000000000e0
0.000000000000000e0 0.000000000000000e0 0.000000000000000e0 0.000000000000000e0
0.000000000000000e0 0.000000000000000e0 0.000000000000000e0 0.000000000000000e0
0.000000000000000e0 0.000000000000000e0 0.000000000000000e0 0.000000000000000e0
0.000000000000000e0 0.000000000000000e0 0.000000000000000e0 0.000000000000000e0
0.000000000000000e0 0.000000000000000e0 0.000000000000000e0 0.000000000000000e0
0.000000000000000e0 0.000000000000000e0 0.000000000000000e0 0.000000000000000e0
0.000000000000000e0 0.000000000000000e0 0.000000000000000e0 0.000000000000000e0
0.000000000000000e0 0.000000000000000e0 0.000000000000000e0 0.000000000000000e0
0.000000000000000e0 0.000000000000000e0 0.000000000000000e0 0.000000000000000e0
0.000000000000000e0 0.000000000000000e0 0.000000000000000e0 0.000000000000000e0
0.000000000000000e0 0.000000000000000e0 0.000000000000000e0 0.000000000000000e0
0.000000000000000e0 0.000000000000000e0 0.000000000000000e0 0.000000000000000e0
0.000000000000000e0 0.000000000000000e0 0.000000000000000e0 0.000000000000000e0
0.000000000000000e0 0.000000000000000e0 0.000000000000000e0 0.000000000000000e0
0.000000000000000e0 0.000000000000000e0 0.000000000000000e0 0.000000000000000e0
0.000000000000000e0 0.000000000000000e0 0.000000000000000e0 0.000000000000000e0
0.000000000000000e0 0.000000000000000e0 0.000000000000000e0 0.000000000000000e0
0.000000000000000e0 0.000000000000000e0 0.000000000000000e0 0.000000000000000e0
0.000000000000000e0 0.000000000000000e0 0.000000000000000e0 0.000000000000000e0
0.000000000000000e0 0.000000000000000e0 0.000000000000000e0 0.000000000000000e0
0.000000000000000e0
</PP_QIJ.2.2>
<PP_QIJ.2.3 first_index="2" second_index="3" composite_index="5">
-1.714718071310000e-11 -1.780240872960000e-11 -1.848267431700000e-11 -1.918893421090000e-11
-1.992218170559999e-11 -2.068344805110000e-11 -2.147380390390000e-11 -2.229436083190000e-11
-2.314627287850000e-11 -2.403073818560000e-11 -2.494900067810000e-11 -2.590235181390002e-11
-2.689213240020000e-11 -2.791973447900000e-11 -2.898660328509999e-11 -3.009423927849999e-11
-3.124420025480000e-11 -3.243810353600001e-11 -3.367762824550000e-11 -3.496451766909999e-11
-3.630058170700000e-11 -3.768769941940000e-11 -3.912782166910000e-11 -4.062297386540000e-11
-4.217525881229999e-11 -4.378685966630000e-11 -4.546004300670001e-11 -4.719716202310000e-11
-4.900065982530000e-11 -5.087307287929999e-11 -5.281703457440000e-11 -5.483527892700001e-11
-5.693064442579999e-11 -5.910607802359999e-11 -6.136463928240000e-11 -6.370950467589998e-11
-6.614397205749998e-11 -6.867146529800001e-11 -7.129553910109999e-11 -7.401988400280002e-11
-7.684833156200000e-11 -7.978485974900002e-11 -8.283359854029998e-11 -8.599883572709999e-11
-8.928502294540001e-11 -9.269678193750000e-11 -9.623891105140002e-11 -9.991639198960002e-11
-1.037343968160000e-10 -1.076982952270000e-10 -1.118136621100000e-10 -1.160862853760000e-10
-1.205221741050000e-10 -1.251275669980000e-10 -1.299089411450000e-10 -1.348730211430000e-10
-1.400267885450000e-10 -1.453774916870000e-10 -1.509326558760000e-10 -1.567000939760000e-10
-1.626879173970000e-10 -1.689045475010000e-10 -1.753587274500000e-10 -1.820595344950000e-10
-1.890163927510000e-10 -1.962390864460000e-10 -2.037377736800000e-10 -2.115230007190001e-10
-2.196057168189999e-10 -2.279972896309999e-10 -2.367095211870000e-10 -2.457546644950000e-10
-2.551454407790001e-10 -2.648950573630000e-10 -2.750172262520000e-10 -2.855261834109999e-10
-2.964367087910000e-10 -3.077641471160000e-10 -3.195244294600000e-10 -3.317340956560000e-10
-3.444103175580000e-10 -3.575709231880000e-10 -3.712344218150000e-10 -3.854200299830000e-10
-4.001476985390000e-10 -4.154381406890000e-10 -4.313128611360001e-10 -4.477941863170000e-10
-4.649052958090000e-10 -4.826702549240002e-10 -5.011140485609999e-10 -5.202626163390002e-10
-5.401428890830000e-10 -5.607828266970001e-10 -5.822114574890001e-10 -6.044589189980000e-10
-6.275565003760000e-10 -6.515366863970002e-10 -6.764332031429998e-10 -7.022810654350000e-10
-7.291166260830000e-10 -7.569776270080002e-10 -7.859032523240001e-10 -8.159341834489998e-10
-8.471126563199999e-10 -8.794825207910002e-10 -9.130893023080001e-10 -9.479802659330003e-10
-9.842044828200002e-10 -1.021812899230000e-9 -1.060858408180000e-9 -1.101395923850000e-9
-1.143482458760000e-9 -1.187177204040000e-9 -1.232541612590000e-9 -1.279639485580000e-9
-1.328537062130000e-9 -1.379303112490000e-9 -1.432009034760000e-9 -1.486728955300000e-9
-1.543539833000000e-9 -1.602521567480000e-9 -1.663757111490000e-9 -1.727332587590000e-9
-1.793337409210000e-9 -1.861864406490000e-9 -1.933009956760000e-9 -2.006874120140000e-9
-2.083560780240000e-9 -2.163177790260000e-9 -2.245837124680000e-9 -2.331655036770000e-9
-2.420752222050000e-9 -2.513253988060000e-9 -2.609290430580000e-9 -2.708996616610000e-9
-2.812512774350001e-9 -2.919984490350000e-9 -3.031562914349999e-9 -3.147404971810000e-9
-3.267673584609999e-9 -3.392537900199999e-9 -3.522173529510000e-9 -3.656762793870000e-9
-3.796494981490000e-9 -3.941566613670000e-9 -4.092181721150000e-9 -4.248552131100000e-9
-4.410897765009998e-9 -4.579446948020000e-9 -4.754436730010000e-9 -4.936113219010002e-9
-5.124731927310000e-9 -5.320558130849999e-9 -5.523867242240001e-9 -5.734945198200000e-9
-5.954088861620001e-9 -6.181606439099999e-9 -6.417817914440000e-9 -6.663055498629999e-9
-6.917664097100000e-9 -7.182001794790000e-9 -7.456440359759999e-9 -7.741365766060003e-9
-8.037178736570002e-9 -8.344295306549999e-9 -8.663147408799999e-9 -8.994183481110001e-9
-9.337869096950001e-9 -9.694687620249999e-9 -1.006514088520000e-8 -1.044974990220000e-8
-1.084905559010000e-8 -1.126361953780000e-8 -1.169402479320000e-8 -1.214087668390000e-8
-1.260480366790000e-8 -1.308645821810000e-8 -1.358651773950000e-8 -1.410568552200000e-8
-1.464469172990000e-8 -1.520429442800000e-8 -1.578528064850000e-8 -1.638846749760000e-8
-1.701470330480000e-8 -1.766486881550000e-8 -1.833987843060000e-8 -1.904068149160000e-8
-1.976826361640000e-8 -2.052364808510000e-8 -2.130789727930000e-8 -2.212211417640000e-8
-2.296744390040000e-8 -2.384507533300000e-8 -2.475624278500000e-8 -2.570222773270000e-8
-2.668436062010000e-8 -2.770402273000000e-8 -2.876264812630000e-8 -2.986172567170000e-8
-3.100280112080000e-8 -3.218747929450000e-8 -3.341742633689999e-8 -3.469437205849999e-8
-3.602011236940000e-8 -3.739651180450000e-8 -3.882550614610000e-8 -4.030910514640000e-8
-4.184939535400000e-8 -4.344854304830000e-8 -4.510879728630000e-8 -4.683249306570000e-8
-4.862205460870000e-8 -5.047999877130001e-8 -5.240893858350000e-8 -5.441158692390000e-8
-5.649076033489999e-8 -5.864938298439998e-8 -6.089049077789999e-8 -6.321723562839999e-8
-6.563288988929999e-8 -6.814085095630000e-8 -7.074464604579999e-8 -7.344793715560001e-8
-7.625452621480000e-8 -7.916836043089999e-8 -8.219353784140001e-8 -8.533431307700001e-8
-8.859510334530000e-8 -9.198049464309999e-8 -9.549524820619999e-8 -9.914430720550000e-8
-1.029328036990000e-7 -1.068660658500000e-7 -1.109496254190000e-7 -1.151892255450000e-7
-1.195908288230000e-7 -1.241606256880000e-7 -1.289050431210000e-7 -1.338307536920000e-7
-1.389446849360000e-7 -1.442540291060000e-7 -1.497662532790000e-7 -1.554891098620000e-7
-1.614306474960000e-7 -1.675992223710000e-7 -1.740035099830000e-7 -1.806525173300000e-7
-1.875555955830000e-7 -1.947224532360000e-7 -2.021631697600000e-7 -2.098882097780000e-7
-2.179084377800000e-7 -2.262351334090000e-7 -2.348800073170000e-7 -2.438552176370000e-7
-2.531733870860000e-7 -2.628476207080000e-7 -2.728915243160000e-7 -2.833192236139999e-7
-2.941453840740000e-7 -3.053852315549999e-7 -3.170545737150000e-7 -3.291698222459999e-7
-3.417480159520001e-7 -3.548068447130000e-7 -3.683646743610000e-7 -3.824405725109999e-7
-3.970543353740000e-7 -4.122265156010000e-7 -4.279784511810000e-7 -4.443322954560000e-7
-4.613110482720000e-7 -4.789385883240000e-7 -4.972397067390000e-7 -5.162401419399999e-7
-5.359666158420000e-7 -5.564468714300002e-7 -5.777097117770000e-7 -5.997850405490000e-7
-6.227039040580000e-7 -6.464985349239999e-7 -6.712023974000002e-7 -6.968502344390002e-7
-7.234781165449999e-7 -7.511234925060001e-7 -7.798252420509999e-7 -8.096237305300001e-7
-8.405608656770001e-7 -8.726801565440001e-7 -9.060267746859999e-7 -9.406476176820000e-7
-9.765913750879998e-7 -1.013908596910000e-6 -1.052651764670000e-6 -1.092875365230000e-6
-1.134635967420000e-6 -1.177992301540000e-6 -1.223005342010000e-6 -1.269738393050000e-6
-1.318257177760000e-6 -1.368629930480000e-6 -1.420927492790000e-6 -1.475223413090000e-6
-1.531594050050000e-6 -1.590118679960000e-6 -1.650879608200000e-6 -1.713962285000000e-6
-1.779455425580001e-6 -1.847451134890000e-6 -1.918045037110000e-6 -1.991336410130000e-6
-2.067428325130000e-6 -2.146427791510000e-6 -2.228445907349999e-6 -2.313598015600000e-6
-2.402003866290000e-6 -2.493787784890000e-6 -2.589078847070000e-6 -2.688011060239999e-6
-2.790723551940000e-6 -2.897360765419999e-6 -3.008072662750001e-6 -3.123014935630000e-6
-3.242349224280000e-6 -3.366243344730000e-6 -3.494871524659999e-6 -3.628414648400000e-6
-3.767060511220000e-6 -3.911004083280000e-6 -4.060447783750000e-6 -4.215601765360001e-6
-4.376684209790000e-6 -4.543921634370001e-6 -4.717549210490001e-6 -4.897811094180000e-6
-5.084960769249999e-6 -5.279261403590001e-6 -5.480986219089999e-6 -5.690418875590000e-6
-5.907853869610000e-6 -6.133596948190000e-6 -6.367965538610000e-6 -6.611289194430001e-6
-6.863910058669999e-6 -7.126183344549998e-6 -7.398477834649999e-6 -7.681176399089999e-6
-7.974676533500001e-6 -8.279390917510000e-6 -8.595747994560000e-6 -8.924192573820001e-6
-9.265186455069998e-6 -9.619209077450000e-6 -9.986758192909999e-6 -1.036835056540000e-5
-1.076452269680000e-5 -1.117583158010000e-5 -1.160285548210000e-5 -1.204619475520000e-5
-1.250647268070000e-5 -1.298433634350000e-5 -1.348045754140000e-5 -1.399553372750000e-5
-1.453028899000000e-5 -1.508547506830000e-5 -1.566187240820000e-5 -1.626029125760000e-5
-1.688157280310000e-5 -1.752659035120000e-5 -1.819625055290000e-5 -1.889149467660000e-5
-1.961329992780000e-5 -2.036268082080000e-5 -2.114069060100000e-5 -2.194842272240000e-5
-2.278701238090000e-5 -2.365763810620000e-5 -2.456152341380000e-5 -2.549993852060000e-5
-2.647420212470000e-5 -2.748568325410001e-5 -2.853580318480000e-5 -2.962603743210000e-5
-3.075791781750000e-5 -3.193303461440000e-5 -3.315303877520001e-5 -3.441964424260000e-5
-3.573463034920000e-5 -3.709984430830000e-5 -3.851720379840000e-5 -3.998869964670000e-5
-4.151639861430001e-5 -4.310244628620000e-5 -4.474907007190000e-5 -4.645858231950000e-5
-4.823338354760000e-5 -5.007596579930001e-5 -5.198891612470000e-5 -5.397492019360000e-5
-5.603676604600000e-5 -5.817734798420000e-5 -6.039967061250000e-5 -6.270685302939999e-5
-6.510213317830001e-5 -6.758887236330001e-5 -7.017055993470001e-5 -7.285081815270001e-5
-7.563340723369999e-5 -7.852223058830000e-5 -8.152134025609998e-5 -8.463494254600000e-5
-8.786740388949999e-5 -9.122325691480000e-5 -9.470720674930000e-5 -9.832413756070000e-5
-1.020791193440000e-4 -1.059774149640000e-4 -1.100244874650000e-4 -1.142260076500000e-4
-1.185878619570000e-4 -1.231161606170000e-4 -1.278172461280000e-4 -1.326977020520000e-4
-1.377643621290000e-4 -1.430243197460000e-4 -1.484849377590000e-4 -1.541538586800000e-4
-1.600390152540000e-4 -1.661486414270000e-4 -1.724912837320000e-4 -1.790758130980000e-4
-1.859114371050000e-4 -1.930077127020000e-4 -2.003745593990000e-4 -2.080222729560000e-4
-2.159615395880000e-4 -2.242034507040000e-4 -2.327595181970000e-4 -2.416416903110000e-4
-2.508623681090000e-4 -2.604344225480000e-4 -2.703712122130000e-4 -2.806866017040000e-4
-2.913949807220000e-4 -3.025112838710000e-4 -3.140510112069999e-4 -3.260302495620000e-4
-3.384656946650000e-4 -3.513746741030000e-4 -3.647751711440000e-4 -3.786858494590000e-4
-3.931260787739999e-4 -4.081159614890001e-4 -4.236763603020000e-4 -4.398289268729999e-4
-4.565961315670000e-4 -4.740012943230000e-4 -4.920686166760001e-4 -5.108232149930000e-4
-5.302911549559999e-4 -5.504994873450000e-4 -5.714762851600001e-4 -5.932506821390000e-4
-6.158529127220000e-4 -6.393143535100000e-4 -6.636675662669999e-4 -6.889463425379999e-4
-7.151857499180001e-4 -7.424221800400000e-4 -7.706933983460001e-4 -8.000385956870000e-4
-8.304984418270001e-4 -8.621151409070000e-4 -8.949324889280000e-4 -9.289959333350000e-4
-9.643526347430001e-4 -1.001051530890000e-3 -1.039143402880000e-3 -1.078680943790000e-3
-1.119718829680000e-3 -1.162313793100000e-3 -1.206524699220000e-3 -1.252412624500000e-3
-1.300040938160000e-3 -1.349475386360000e-3 -1.400784179300000e-3 -1.454038081190000e-3
-1.509310503260000e-3 -1.566677599890000e-3 -1.626218367820000e-3 -1.688014748730000e-3
-1.752151735080000e-3 -1.818717479410000e-3 -1.887803407200000e-3 -1.959504333369999e-3
-2.033918582550000e-3 -2.111148113180000e-3 -2.191298645760000e-3 -2.274479795120000e-3
-2.360805207180000e-3 -2.450392700110000e-3 -2.543364410290000e-3 -2.639846943150000e-3
-2.739971529240000e-3 -2.843874185690000e-3 -2.951695883460000e-3 -3.063582720550000e-3
-3.179686101670000e-3 -3.300162924579999e-3 -3.425175773590000e-3 -3.554893120600000e-3
-3.689489534030000e-3 -3.829145896220000e-3 -3.974049629580000e-3 -4.124394932050000e-3
-4.280383022259999e-3 -4.442222394780000e-3 -4.610129085880001e-3 -4.784326950030000e-3
-4.965047947570000e-3 -5.152532443549999e-3 -5.347029517920000e-3 -5.548797287000000e-3
-5.758103236089999e-3 -5.975224562850000e-3 -6.200448531000000e-3 -6.434072833630000e-3
-6.676405965420001e-3 -6.927767602490000e-3 -7.188488989080000e-3 -7.458913329350001e-3
-7.739396183169999e-3 -8.030305864319999e-3 -8.332023839530001e-3 -8.644945127110002e-3
-8.969478693740001e-3 -9.306047848630000e-3 -9.655090634249998e-3 -1.001706021380000e-2
-1.039242525550000e-2 -1.078167031580000e-2 -1.118529622270000e-2 -1.160382046260000e-2
-1.203777757600000e-2 -1.248771956460000e-2 -1.295421631920000e-2 -1.343785607190000e-2
-1.393924588360000e-2 -1.445901217210000e-2 -1.499780129010000e-2 -1.555628016040000e-2
-1.613513697410000e-2 -1.673508195640000e-2 -1.735684820180000e-2 -1.800119257730000e-2
-1.866889668810000e-2 -1.936076789530000e-2 -2.007764037120000e-2 -2.082037617050000e-2
-2.158986629250000e-2 -2.238703170460000e-2 -2.321282429190000e-2 -2.406822769880000e-2
-2.495425802690000e-2 -2.587196435740000e-2 -2.682242907210000e-2 -2.780676795660000e-2
-2.882613008440000e-2 -2.988169749420000e-2 -3.097468469470000e-2 -3.210633805030000e-2
-3.327793512190000e-2 -3.449078405660000e-2 -3.574622313280000e-2 -3.704562057540000e-2
-3.839037475280000e-2 -3.978191485189999e-2 -4.122170209980000e-2 -4.271123155780000e-2
-4.425203445440000e-2 -4.584568095950000e-2 -4.749378322549999e-2 -4.919799844740000e-2
-5.096003163070000e-2 -5.278163771080000e-2 -5.466462265420001e-2 -5.661084319570000e-2
-5.862220494380001e-2 -6.070065870910000e-2 -6.284819508729999e-2 -6.506683753570000e-2
-6.735863441820000e-2 -6.972565070920000e-2 -7.216996022530000e-2 -7.469363934930000e-2
-7.729876318120001e-2 -7.998740488150000e-2 -8.276163863470000e-2 -8.562354617050000e-2
-8.857522618280001e-2 -9.161880533520000e-2 -9.475644895090001e-2 -9.799036906360000e-2
-1.013228273780000e-1 -1.047561309610000e-1 -1.082926192160000e-1 -1.119346418650000e-1
-1.156845291790000e-1 -1.195445573440000e-1 -1.235169133350000e-1 -1.276036646330000e-1
-1.318067392300000e-1 -1.361279203270000e-1 -1.405688579330000e-1 -1.451310962490000e-1
-1.498161119290000e-1 -1.546253545880000e-1 -1.595602783820000e-1 -1.646223529390000e-1
-1.698130441370000e-1 -1.751337603470000e-1 -1.805857672980000e-1 -1.861700832690000e-1
-1.918873738650000e-1 -1.977378697350000e-1 -2.037213292170000e-1 -2.098370597720000e-1
-2.160839980250000e-1 -2.224608306050000e-1 -2.289661216050000e-1 -2.355984027080000e-1
-2.423561839800000e-1 -2.492378595240000e-1 -2.562415110600000e-1 -2.633646473880000e-1
-2.706039478700000e-1 -2.779550912300000e-1 -2.854127375380000e-1 -2.929706891340000e-1
-3.006221939700000e-1 -3.083602918290000e-1 -3.161780654970000e-1 -3.240686679790000e-1
-3.320250622600000e-1 -3.400395187190000e-1 -3.481030304490000e-1 -3.562048777510000e-1
-3.643325549830000e-1 -3.724721504190000e-1 -3.806090743570000e-1 -3.887288402490000e-1
-3.968175163240000e-1 -4.048615541450000e-1 -4.128469654350000e-1 -4.207581618260000e-1
-4.285770237710000e-1 -4.362827570540000e-1 -4.438527642310000e-1 -4.512642157990000e-1
-4.584955265660000e-1 -4.655268415620000e-1 -4.723390760880000e-1 -4.789118908600000e-1
-4.852217620070000e-1 -4.912414821270000e-1 -4.969417242980000e-1 -5.022939899350000e-1
-5.072731415940001e-1 -5.118576745580000e-1 -5.160272157460000e-1 -5.197587684490000e-1
-5.230245095230000e-1 -5.257932585160000e-1 -5.280351507760001e-1 -5.297262802760000e-1
-5.308494887100000e-1 -5.313901268040000e-1 -5.313298982540000e-1 -5.306442468800000e-1
-5.293064654900000e-1 -5.272958740120000e-1 -5.246029448430000e-1 -5.212259902070000e-1
-5.171616585110001e-1 -5.123983592909999e-1 -5.069202580870000e-1 -5.007193215380000e-1
-4.938034619100000e-1 -4.861911436620000e-1 -4.778968586120000e-1 -4.689234806640000e-1
-4.592718995890000e-1 -4.489586511130000e-1 -4.380205211700000e-1 -4.264983926670000e-1
-4.144187169540000e-1 -4.017971892280000e-1 -3.886625677550000e-1 -3.750698438250000e-1
-3.610822988200000e-1 -3.467443359570000e-1 -3.320841509960000e-1 -3.171456773890000e-1
-3.020034387660000e-1 -2.867341070370000e-1 -2.713849209930000e-1 -2.559901523510000e-1
-2.406129473560000e-1 -2.253428489800000e-1 -2.102474015660000e-1 -1.953583078560000e-1
-1.807203566230000e-1 -1.664181020940000e-1 -1.525263516990000e-1 -1.390710864030000e-1
-1.260778497810000e-1 -1.136183680550000e-1 -1.017589227890000e-1 -9.050753404849999e-2
-7.987097748780001e-2 -6.990771882830000e-2 -6.065915445500001e-2 -5.210181669370000e-2
-4.423071233300000e-2 -3.709155587550000e-2 -3.068365834330000e-2 -2.495534384250000e-2
-1.991037871280000e-2 -1.556573953250000e-2 -1.185611562950000e-2 -8.727614225430001e-3
-6.190844830290000e-3 -4.190985231140000e-3 -2.635576212970000e-3 -1.512041278220000e-3
-7.730797306840000e-4 -3.021930769140000e-4 -6.275470500870001e-5 -6.091457879519999e-6
0.000000000000000e0 0.000000000000000e0 0.000000000000000e0 0.000000000000000e0
0.000000000000000e0 0.000000000000000e0 0.000000000000000e0 0.000000000000000e0
0.000000000000000e0 0.000000000000000e0 0.000000000000000e0 0.000000000000000e0
0.000000000000000e0 0.000000000000000e0 0.000000000000000e0 0.000000000000000e0
0.000000000000000e0 0.000000000000000e0 0.000000000000000e0 0.000000000000000e0
0.000000000000000e0 0.000000000000000e0 0.000000000000000e0 0.000000000000000e0
0.000000000000000e0 0.000000000000000e0 0.000000000000000e0 0.000000000000000e0
0.000000000000000e0 0.000000000000000e0 0.000000000000000e0 0.000000000000000e0
0.000000000000000e0 0.000000000000000e0 0.000000000000000e0 0.000000000000000e0
0.000000000000000e0 0.000000000000000e0 0.000000000000000e0 0.000000000000000e0
0.000000000000000e0 0.000000000000000e0 0.000000000000000e0 0.000000000000000e0
0.000000000000000e0 0.000000000000000e0 0.000000000000000e0 0.000000000000000e0
0.000000000000000e0 0.000000000000000e0 0.000000000000000e0 0.000000000000000e0
0.000000000000000e0 0.000000000000000e0 0.000000000000000e0 0.000000000000000e0
0.000000000000000e0 0.000000000000000e0 0.000000000000000e0 0.000000000000000e0
0.000000000000000e0 0.000000000000000e0 0.000000000000000e0 0.000000000000000e0
0.000000000000000e0 0.000000000000000e0 0.000000000000000e0 0.000000000000000e0
0.000000000000000e0 0.000000000000000e0 0.000000000000000e0 0.000000000000000e0
0.000000000000000e0 0.000000000000000e0 0.000000000000000e0 0.000000000000000e0
0.000000000000000e0 0.000000000000000e0 0.000000000000000e0 0.000000000000000e0
0.000000000000000e0 0.000000000000000e0 0.000000000000000e0 0.000000000000000e0
0.000000000000000e0 0.000000000000000e0 0.000000000000000e0 0.000000000000000e0
0.000000000000000e0 0.000000000000000e0 0.000000000000000e0 0.000000000000000e0
0.000000000000000e0 0.000000000000000e0 0.000000000000000e0 0.000000000000000e0
0.000000000000000e0 0.000000000000000e0 0.000000000000000e0 0.000000000000000e0
0.000000000000000e0 0.000000000000000e0 0.000000000000000e0 0.000000000000000e0
0.000000000000000e0 0.000000000000000e0 0.000000000000000e0 0.000000000000000e0
0.000000000000000e0 0.000000000000000e0 0.000000000000000e0 0.000000000000000e0
0.000000000000000e0 0.000000000000000e0 0.000000000000000e0 0.000000000000000e0
0.000000000000000e0 0.000000000000000e0 0.000000000000000e0 0.000000000000000e0
0.000000000000000e0 0.000000000000000e0 0.000000000000000e0 0.000000000000000e0
0.000000000000000e0 0.000000000000000e0 0.000000000000000e0 0.000000000000000e0
0.000000000000000e0 0.000000000000000e0 0.000000000000000e0 0.000000000000000e0
0.000000000000000e0 0.000000000000000e0 0.000000000000000e0 0.000000000000000e0
0.000000000000000e0 0.000000000000000e0 0.000000000000000e0 0.000000000000000e0
0.000000000000000e0 0.000000000000000e0 0.000000000000000e0 0.000000000000000e0
0.000000000000000e0 0.000000000000000e0 0.000000000000000e0 0.000000000000000e0
0.000000000000000e0 0.000000000000000e0 0.000000000000000e0 0.000000000000000e0
0.000000000000000e0 0.000000000000000e0 0.000000000000000e0 0.000000000000000e0
0.000000000000000e0 0.000000000000000e0 0.000000000000000e0 0.000000000000000e0
0.000000000000000e0 0.000000000000000e0 0.000000000000000e0 0.000000000000000e0
0.000000000000000e0 0.000000000000000e0 0.000000000000000e0 0.000000000000000e0
0.000000000000000e0 0.000000000000000e0 0.000000000000000e0 0.000000000000000e0
0.000000000000000e0 0.000000000000000e0 0.000000000000000e0 0.000000000000000e0
0.000000000000000e0 0.000000000000000e0 0.000000000000000e0 0.000000000000000e0
0.000000000000000e0 0.000000000000000e0 0.000000000000000e0 0.000000000000000e0
0.000000000000000e0 0.000000000000000e0 0.000000000000000e0 0.000000000000000e0
0.000000000000000e0 0.000000000000000e0 0.000000000000000e0 0.000000000000000e0
0.000000000000000e0 0.000000000000000e0 0.000000000000000e0 0.000000000000000e0
0.000000000000000e0 0.000000000000000e0 0.000000000000000e0 0.000000000000000e0
0.000000000000000e0 0.000000000000000e0 0.000000000000000e0 0.000000000000000e0
0.000000000000000e0 0.000000000000000e0 0.000000000000000e0 0.000000000000000e0
0.000000000000000e0 0.000000000000000e0 0.000000000000000e0 0.000000000000000e0
0.000000000000000e0 0.000000000000000e0 0.000000000000000e0 0.000000000000000e0
0.000000000000000e0 0.000000000000000e0 0.000000000000000e0 0.000000000000000e0
0.000000000000000e0 0.000000000000000e0 0.000000000000000e0 0.000000000000000e0
0.000000000000000e0 0.000000000000000e0 0.000000000000000e0 0.000000000000000e0
0.000000000000000e0 0.000000000000000e0 0.000000000000000e0 0.000000000000000e0
0.000000000000000e0 0.000000000000000e0 0.000000000000000e0 0.000000000000000e0
0.000000000000000e0 0.000000000000000e0 0.000000000000000e0 0.000000000000000e0
0.000000000000000e0 0.000000000000000e0 0.000000000000000e0 0.000000000000000e0
0.000000000000000e0 0.000000000000000e0 0.000000000000000e0 0.000000000000000e0
0.000000000000000e0 0.000000000000000e0 0.000000000000000e0 0.000000000000000e0
0.000000000000000e0 0.000000000000000e0 0.000000000000000e0 0.000000000000000e0
0.000000000000000e0 0.000000000000000e0 0.000000000000000e0 0.000000000000000e0
0.000000000000000e0 0.000000000000000e0 0.000000000000000e0 0.000000000000000e0
0.000000000000000e0 0.000000000000000e0 0.000000000000000e0 0.000000000000000e0
0.000000000000000e0 0.000000000000000e0 0.000000000000000e0 0.000000000000000e0
0.000000000000000e0 0.000000000000000e0 0.000000000000000e0 0.000000000000000e0
0.000000000000000e0 0.000000000000000e0 0.000000000000000e0 0.000000000000000e0
0.000000000000000e0 0.000000000000000e0 0.000000000000000e0 0.000000000000000e0
0.000000000000000e0 0.000000000000000e0 0.000000000000000e0 0.000000000000000e0
0.000000000000000e0 0.000000000000000e0 0.000000000000000e0 0.000000000000000e0
0.000000000000000e0 0.000000000000000e0 0.000000000000000e0 0.000000000000000e0
0.000000000000000e0 0.000000000000000e0 0.000000000000000e0 0.000000000000000e0
0.000000000000000e0 0.000000000000000e0 0.000000000000000e0 0.000000000000000e0
0.000000000000000e0 0.000000000000000e0 0.000000000000000e0 0.000000000000000e0
0.000000000000000e0 0.000000000000000e0 0.000000000000000e0 0.000000000000000e0
0.000000000000000e0 0.000000000000000e0 0.000000000000000e0 0.000000000000000e0
0.000000000000000e0 0.000000000000000e0 0.000000000000000e0 0.000000000000000e0
0.000000000000000e0 0.000000000000000e0 0.000000000000000e0 0.000000000000000e0
0.000000000000000e0 0.000000000000000e0 0.000000000000000e0 0.000000000000000e0
0.000000000000000e0 0.000000000000000e0 0.000000000000000e0 0.000000000000000e0
0.000000000000000e0
</PP_QIJ.2.3>
<PP_QIJ.2.4 first_index="2" second_index="4" composite_index="8">
-1.542201651050000e-11 -1.601132255460000e-11 -1.662314715910000e-11 -1.725835080330000e-11
-1.791782684680000e-11 -1.860250278650000e-11 -1.931334156070000e-11 -2.005134290360000e-11
-2.081754475110001e-11 -2.161302470080000e-11 -2.243890152740000e-11 -2.329633675620000e-11
-2.418653629670001e-11 -2.511075213880000e-11 -2.607028411310000e-11 -2.706648171960000e-11
-2.810074602520000e-11 -2.917453163450001e-11 -3.028934873529999e-11 -3.144676522290001e-11
-3.264840890470000e-11 -3.389596979020000e-11 -3.519120246729999e-11 -3.653592857020000e-11
-3.793203934160001e-11 -3.938149829220000e-11 -4.088634396219999e-11 -4.244869278880000e-11
-4.407074208229999e-11 -4.575477311669998e-11 -4.750315433780001e-11 -4.931834469480000e-11
-5.120289709789999e-11 -5.315946200940002e-11 -5.519079117070000e-11 -5.729974147320000e-11
-5.948927897520001e-11 -6.176248307460003e-11 -6.412255083879998e-11 -6.657280150169999e-11
-6.911668113180002e-11 -7.175776747859999e-11 -7.449977500449999e-11 -7.734656010920002e-11
-8.030212655289999e-11 -8.337063108729998e-11 -8.655638930209999e-11 -8.986388169430002e-11
-9.329775996949998e-11 -9.686285358430000e-11 -1.005641765380000e-10 -1.044069344260000e-10
-1.083965317590000e-10 -1.125385795640000e-10 -1.168389032780000e-10 -1.213035509390000e-10
-1.259388016920000e-10 -1.307511746220000e-10 -1.357474379200000e-10 -1.409346184030000e-10
-1.463200113970000e-10 -1.519111909980000e-10 -1.577160207220000e-10 -1.637426645650000e-10
-1.699995984870000e-10 -1.764956223299999e-10 -1.832398721970000e-10 -1.902418332980000e-10
-1.975113532940000e-10 -2.050586561410000e-10 -2.128943564769999e-10 -2.210294745420000e-10
-2.294754516860000e-10 -2.382441664520000e-10 -2.473479512870001e-10 -2.567996098860000e-10
-2.666124351970000e-10 -2.768002281200000e-10 -2.873773169120000e-10 -2.983585773450001e-10
-3.097594536190001e-10 -3.215959800930001e-10 -3.338848038250000e-10 -3.466432079950000e-10
-3.598891362050000e-10 -3.736412177170000e-10 -3.879187936570000e-10 -4.027419442099999e-10
-4.181315168679999e-10 -4.341091557450000e-10 -4.506973320210000e-10 -4.679193755409999e-10
-4.857995076349999e-10 -5.043628751729999e-10 -5.236355859390001e-10 -5.436447453460000e-10
-5.644184945610000e-10 -5.859860500780000e-10 -6.083777448120000e-10 -6.316250707580000e-10
-6.557607232840001e-10 -6.808186471099999e-10 -7.068340840539999e-10 -7.338436225910000e-10
-7.618852493160000e-10 -7.909984023639999e-10 -8.212240268810000e-10 -8.526046326080003e-10
-8.851843536659999e-10 -9.190090106289997e-10 -9.541261749629999e-10 -9.905852359369998e-10
-1.028437470080000e-9 -1.067736113290000e-9 -1.108536435740000e-9 -1.150895819540000e-9
-1.194873839530000e-9 -1.240532346990000e-9 -1.287935556680000e-9 -1.337150137110000e-9
-1.388245304350000e-9 -1.441292919330000e-9 -1.496367588940000e-9 -1.553546770940000e-9
-1.612910882900001e-9 -1.674543415320000e-9 -1.738531049010000e-9 -1.804963777040000e-9
-1.873935031300000e-9 -1.945541813860000e-9 -2.019884833480000e-9 -2.097068647140000e-9
-2.177201807200000e-9 -2.260397013980000e-9 -2.346771274320000e-9 -2.436446066110000e-9
-2.529547509149999e-9 -2.626206542529999e-9 -2.726559108749999e-9 -2.830746344969999e-9
-2.938914781460000e-9 -3.051216547700001e-9 -3.167809586330001e-9 -3.288857875280000e-9
-3.414531658400000e-9 -3.545007684880000e-9 -3.680469457860000e-9 -3.821107492460001e-9
-3.967119583770000e-9 -4.118711085010000e-9 -4.276095196320001e-9 -4.439493264670001e-9
-4.609135095080000e-9 -4.785259273890001e-9 -4.968113504280002e-9 -5.157954954620001e-9
-5.355050620189998e-9 -5.559677698690001e-9 -5.772123980050000e-9 -5.992688251209999e-9
-6.221680716310001e-9 -6.459423433030000e-9 -6.706250765430001e-9 -6.962509854280001e-9
-7.228561105280001e-9 -7.504778695870000e-9 -7.791551101560000e-9 -8.089281642199998e-9
-8.398389049299999e-9 -8.719308054860003e-9 -9.052490002799999e-9 -9.398403483760001e-9
-9.757534994109999e-9 -1.013038962010000e-8 -1.051749174840000e-8 -1.091938580330000e-8
-1.133663701270000e-8 -1.176983220280000e-8 -1.221958062370000e-8 -1.268651480570000e-8
-1.317129144970000e-8 -1.367459235010000e-8 -1.419712535390000e-8 -1.473962535640000e-8
-1.530285533440000e-8 -1.588760741950000e-8 -1.649470401230000e-8 -1.712499893840000e-8
-1.777937865010000e-8 -1.845876347230000e-8 -1.916410889720000e-8 -1.989640692830000e-8
-2.065668747520000e-8 -2.144601980210000e-8 -2.226551403180000e-8 -2.311632270690000e-8
-2.399964241050000e-8 -2.491671544960000e-8 -2.586883160150001e-8 -2.685732992849999e-8
-2.788360066070000e-8 -2.894908715130000e-8 -3.005528790650000e-8 -3.120375869309999e-8
-3.239611472620001e-8 -3.363403294139999e-8 -3.491925435260001e-8 -3.625358650090000e-8
-3.763890599649999e-8 -3.907716115819999e-8 -4.057037475320000e-8 -4.212064684200000e-8
-4.373015773200000e-8 -4.540117104360000e-8 -4.713603689400000e-8 -4.893719520200000e-8
-5.080717912000000e-8 -5.274861859580000e-8 -5.476424407200000e-8 -5.685689032569998e-8
-5.902950045530000e-8 -6.128513001960001e-8 -6.362695133509999e-8 -6.605825793719999e-8
-6.858246921279997e-8 -7.120313520820000e-8 -7.392394162290000e-8 -7.674871499200002e-8
-7.968142806840000e-8 -8.272620540989999e-8 -8.588732917929999e-8 -8.916924516729999e-8
-9.257656904439999e-8 -9.611409285259999e-8 -9.978679174420000e-8 -1.035998309790000e-7
-1.075585731890000e-7 -1.116685859190000e-7 -1.159356494570000e-7 -1.203657649640000e-7
-1.249651629120000e-7 -1.297403118490000e-7 -1.346979274920000e-7 -1.398449821750000e-7
-1.451887146560000e-7 -1.507366402890000e-7 -1.564965616030000e-7 -1.624765792690000e-7
-1.686851034940000e-7 -1.751308658480000e-7 -1.818229315440000e-7 -1.887707121850000e-7
-1.959839790040000e-7 -2.034728765990000e-7 -2.112479372060000e-7 -2.193200955050000e-7
-2.277007040030000e-7 -2.364015489930000e-7 -2.454348671370000e-7 -2.548133626639999e-7
-2.645502252460000e-7 -2.746591485410000e-7 -2.851543494520000e-7 -2.960505881190000e-7
-3.073631886770000e-7 -3.191080608050000e-7 -3.313017221000000e-7 -3.439613213060000e-7
-3.571046624280000e-7 -3.707502297710000e-7 -3.849172139330000e-7 -3.996255387900000e-7
-4.148958895170002e-7 -4.307497416750000e-7 -4.472093914100000e-7 -4.642979868080000e-7
-4.820395604469999e-7 -5.004590631890000e-7 -5.195823992700000e-7 -5.394364627260000e-7
-5.600491752090000e-7 -5.814495252560000e-7 -6.036676090460000e-7 -6.267346727240000e-7
-6.506831563410000e-7 -6.755467394660002e-7 -7.013603885469999e-7 -7.281604060830000e-7
-7.559844816619998e-7 -7.848717449670000e-7 -8.148628207949999e-7 -8.459998861759999e-7
-8.783267296850001e-7 -9.118888130100000e-7 -9.467333348789998e-7 -9.829092974189999e-7
-1.020467575070000e-6 -1.059460986090000e-6 -1.099944366870000e-6 -1.141974648980000e-6
-1.185610939250000e-6 -1.230914602870000e-6 -1.277949349690000e-6 -1.326781323730000e-6
-1.377479196260000e-6 -1.430114262300000e-6 -1.484760540870000e-6 -1.541494879050000e-6
-1.600397060040000e-6 -1.661549915310000e-6 -1.725039441060000e-6 -1.790954919120000e-6
-1.859389042449999e-6 -1.930438045490000e-6 -2.004201839410000e-6 -2.080784152600001e-6
-2.160292676450000e-6 -2.242839216770000e-6 -2.328539850960000e-6 -2.417515091150000e-6
-2.509890053640000e-6 -2.605794634750001e-6 -2.705363693420000e-6 -2.808737240769999e-6
-2.916060636860001e-6 -3.027484795090001e-6 -3.143166394210000e-6 -3.263268098610000e-6
-3.387958786890000e-6 -3.517413789270001e-6 -3.651815133900000e-6 -3.791351802790000e-6
-3.936219997320001e-6 -4.086623413959999e-6 -4.242773530550001e-6 -4.404889903470000e-6
-4.573200476119999e-6 -4.747941899220000e-6 -4.929359863369998e-6 -5.117709444170001e-6
-5.313255460659999e-6 -5.516272847380000e-6 -5.727047040540000e-6 -5.945874379119999e-6
-6.173062521040001e-6 -6.408930875419999e-6 -6.653811051199999e-6 -6.908047322900001e-6
-7.171997114169999e-6 -7.446031499760000e-6 -7.730535726679999e-6 -8.025909755150002e-6
-8.332568820260001e-6 -8.650944015000000e-6 -8.981482895559999e-6 -9.324650109660000e-6
-9.680928048859998e-6 -1.005081752570000e-5 -1.043483847680000e-5 -1.083353069250000e-5
-1.124745457440000e-5 -1.167719192200000e-5 -1.212334674890000e-5 -1.258654613050000e-5
-1.306744108360000e-5 -1.356670747990000e-5 -1.408504699390000e-5 -1.462318808730000e-5
-1.518188703010000e-5 -1.576192896200000e-5 -1.636412899250000e-5 -1.698933334410000e-5
-1.763842053860000e-5 -1.831230262820000e-5 -1.901192647400000e-5 -1.973827507290000e-5
-2.049236893460000e-5 -2.127526751150000e-5 -2.208807068260001e-5 -2.293192029390000e-5
-2.380800175760000e-5 -2.471754571110000e-5 -2.566182974050000e-5 -2.664218016800000e-5
-2.765997390840000e-5 -2.871664039500000e-5 -2.981366357980000e-5 -3.095258400830001e-5
-3.213500097360000e-5 -3.336257475260000e-5 -3.463702892589999e-5 -3.596015278690000e-5
-3.733380384079999e-5 -3.875991039939999e-5 -4.024047427360000e-5 -4.177757356780000e-5
-4.337336558010000e-5 -4.503008981270000e-5 -4.675007109510000e-5 -4.853572282620000e-5
-5.038955033909999e-5 -5.231415439199999e-5 -5.431223479220002e-5 -5.638659415570000e-5
-5.854014180979999e-5 -6.077589784220000e-5 -6.309699730340000e-5 -6.550669456670001e-5
-6.800836785340001e-5 -7.060552392800000e-5 -7.330180297070000e-5 -7.610098363260001e-5
-7.900698828170000e-5 -8.202388844660000e-5 -8.515591046389998e-5 -8.840744133890000e-5
-9.178303482610000e-5 -9.528741773850001e-5 -9.892549649320001e-5 -1.027023639040000e-4
-1.066233062260000e-4 -1.106938104720000e-4 -1.149195719900000e-4 -1.193065023420000e-4
-1.238607374600000e-4 -1.285886461260000e-4 -1.334968387530000e-4 -1.385921765080000e-4
-1.438817807670000e-4 -1.493730429340000e-4 -1.550736346150000e-4 -1.609915181880000e-4
-1.671349577530000e-4 -1.735125305060000e-4 -1.801331385290000e-4 -1.870060210250000e-4
-1.941407670110000e-4 -2.015473284840000e-4 -2.092360340850000e-4 -2.172176032660000e-4
-2.255031609950000e-4 -2.341042530060000e-4 -2.430328616230000e-4 -2.523014221769999e-4
-2.619228400340000e-4 -2.719105082630000e-4 -2.822783259650000e-4 -2.930407172910000e-4
-3.042126511680000e-4 -3.158096617670000e-4 -3.278478697340001e-4 -3.403440042260000e-4
-3.533154257570001e-4 -3.667801499160000e-4 -3.807568719620000e-4 -3.952649923460000e-4
-4.103246431820001e-4 -4.259567157229999e-4 -4.421828888430000e-4 -4.590256586070000e-4
-4.765083689280000e-4 -4.946552433770000e-4 -5.134914181769999e-4 -5.330429764269999e-4
-5.533369835949999e-4 -5.744015243330001e-4 -5.962657406520001e-4 -6.189598715100000e-4
-6.425152938610000e-4 -6.669645652110000e-4 -6.923414677340000e-4 -7.186810540000000e-4
-7.460196943660002e-4 -7.743951260869999e-4 -8.038465041909999e-4 -8.344144541900000e-4
-8.661411266609999e-4 -8.990702537719999e-4 -9.332472077979999e-4 -9.687190616860001e-4
-1.005534651730000e-3 -1.043744642410000e-3 -1.083401593440000e-3 -1.124560029120000e-3
-1.167276510020000e-3 -1.211609707050000e-3 -1.257620477960000e-3 -1.305371946450000e-3
-1.354929583750000e-3 -1.406361292920000e-3 -1.459737495810000e-3 -1.515131222830000e-3
-1.572618205510000e-3 -1.632276972060000e-3 -1.694188945880000e-3 -1.758438547120000e-3
-1.825113297500000e-3 -1.894303928350000e-3 -1.966104492040000e-3 -2.040612476970000e-3
-2.117928926120000e-3 -2.198158559470000e-3 -2.281409900340000e-3 -2.367795405880000e-3
-2.457431601900000e-3 -2.550439222260001e-3 -2.646943353080000e-3 -2.747073582030000e-3
-2.850964152900000e-3 -2.958754125970000e-3 -3.070587544270000e-3 -3.186613606200000e-3
-3.306986844880000e-3 -3.431867314560000e-3 -3.561420784440000e-3 -3.695818940370000e-3
-3.835239594680000e-3 -3.979866904530000e-3 -4.129891599060000e-3 -4.285511215670001e-3
-4.446930345440000e-3 -4.614360888070000e-3 -4.788022316020001e-3 -4.968141948100000e-3
-5.154955232010000e-3 -5.348706035570000e-3 -5.549646946160001e-3 -5.758039577530000e-3
-5.974154883299999e-3 -6.198273475939999e-3 -6.430685950210001e-3 -6.671693209599999e-3
-6.921606794410000e-3 -7.180749210110000e-3 -7.449454254150000e-3 -7.728067340239999e-3
-8.016945818500000e-3 -8.316459290559999e-3 -8.626989919020001e-3 -8.948932730930002e-3
-9.282695915889999e-3 -9.628701119530001e-3 -9.987383734649999e-3 -1.035919319250000e-2
-1.074459325810000e-2 -1.114406233390000e-2 -1.155809377840000e-2 -1.198719624400000e-2
-1.243189404370000e-2 -1.289272755160000e-2 -1.337025364510000e-2 -1.386504619680000e-2
-1.437769661860000e-2 -1.490881446520000e-2 -1.545902809610000e-2 -1.602898539470000e-2
-1.661935454000000e-2 -1.723082482030000e-2 -1.786410747410000e-2 -1.851993653930000e-2
-1.919906968620000e-2 -1.990228900590000e-2 -2.063040172240000e-2 -2.138424079530000e-2
-2.216466538030000e-2 -2.297256111690000e-2 -2.380884022130000e-2 -2.467444136690000e-2
-2.557032935280001e-2 -2.649749457170000e-2 -2.745695230870000e-2 -2.844974192080000e-2
-2.947692596710000e-2 -3.053958937460000e-2 -3.163883873980000e-2 -3.277580187050000e-2
-3.395162767170000e-2 -3.516748646170000e-2 -3.642457078200001e-2 -3.772409672160000e-2
-3.906730572350000e-2 -4.045546678020000e-2 -4.188987885530000e-2 -4.337187330010000e-2
-4.490281597850000e-2 -4.648410876820000e-2 -4.811719010130000e-2 -4.980353422650000e-2
-5.154464895049999e-2 -5.334207172960000e-2 -5.519736414740000e-2 -5.711210500480000e-2
-5.908788246599999e-2 -6.112628589840000e-2 -6.322889820910000e-2 -6.539728956059999e-2
-6.763301331970000e-2 -6.993760493220000e-2 -7.231258410030001e-2 -7.475946019120000e-2
-7.727974025610001e-2 -7.987493844390001e-2 -8.254658506480000e-2 -8.529623317879999e-2
-8.812546048670001e-2 -9.103586456009999e-2 -9.402905013000000e-2 -9.710660823250000e-2
-1.002700883920000e-1 -1.035209665150000e-1 -1.068606124980000e-1 -1.102902624010000e-1
-1.138110000900000e-1 -1.174237523060000e-1 -1.211292990190000e-1 -1.249282980190000e-1
-1.288213191420000e-1 -1.328088803210000e-1 -1.368914753590000e-1 -1.410695829480000e-1
-1.453436485420000e-1 -1.497140353850000e-1 -1.541809478010000e-1 -1.587443374850000e-1
-1.634038101930000e-1 -1.681585537140000e-1 -1.730073065430000e-1 -1.779483792550000e-1
-1.829797278710000e-1 -1.880990629130000e-1 -1.933039634530000e-1 -1.985919572010000e-1
-2.039605298740000e-1 -2.094070419040000e-1 -2.149285562710000e-1 -2.205216119240000e-1
-2.261820033390000e-1 -2.319046374030000e-1 -2.376835260550000e-1 -2.435119354180000e-1
-2.493826575290000e-1 -2.552883164460000e-1 -2.612215886130000e-1 -2.671752271490000e-1
-2.731418381810000e-1 -2.791134519450000e-1 -2.850810297490000e-1 -2.910341062550000e-1
-2.969607473460000e-1 -3.028478956170000e-1 -3.086820076310000e-1 -3.144497271260000e-1
-3.201382697130000e-1 -3.257352767800000e-1 -3.312281247920000e-1 -3.366029649960000e-1
-3.418439728120000e-1 -3.469332682870000e-1 -3.518516821770000e-1 -3.565800878580000e-1
-3.611006303130000e-1 -3.653971178360000e-1 -3.694542233750000e-1 -3.732558359900000e-1
-3.767835273700000e-1 -3.800162129840000e-1 -3.829314856850000e-1 -3.855080300600000e-1
-3.877276477860000e-1 -3.895754349870000e-1 -3.910377613700000e-1 -3.920993168920000e-1
-3.927414590190000e-1 -3.929434738700000e-1 -3.926862895400000e-1 -3.919560563970000e-1
-3.907446591030000e-1 -3.890463746320000e-1 -3.868531850680000e-1 -3.841529223660000e-1
-3.809325179530000e-1 -3.771841677150000e-1 -3.729090097010000e-1 -3.681144583240000e-1
-3.628071222730000e-1 -3.569881280390000e-1 -3.506562365200000e-1 -3.438165660510000e-1
-3.364861620100000e-1 -3.286898011350000e-1 -3.204496315580000e-1 -3.117800567230000e-1
-3.026946789240000e-1 -2.932182832350000e-1 -2.833894297050000e-1 -2.732491132160000e-1
-2.628285045690000e-1 -2.521518278030000e-1 -2.412519736540000e-1 -2.301783344260000e-1
-2.189845997500000e-1 -2.077116672080000e-1 -1.963899719970000e-1 -1.850592433490000e-1
-1.737765637600000e-1 -1.625984493460000e-1 -1.515626006310000e-1 -1.406984121990000e-1
-1.300506153790000e-1 -1.196764388070000e-1 -1.096184103570000e-1 -9.989811143240001e-2
-9.054289389530000e-2 -8.159834235180000e-2 -7.310174724580000e-2 -6.506388483260000e-2
-5.749410967940001e-2 -5.042117010469999e-2 -4.386752910450000e-2 -3.782712380410000e-2
-3.229234928080000e-2 -2.727478655860000e-2 -2.277518258240000e-2 -1.876707444410000e-2
-1.523044680630000e-2 -1.216069872230000e-2 -9.533877371750000e-3 -7.309076831820001e-3
-5.462178352000000e-3 -3.969852647150000e-3 -2.785631527710000e-3 -1.868181993670000e-3
-1.190533314920000e-3 -7.111064262909999e-4 -3.851701034430000e-4 -1.839741964350000e-4
-7.439230817300000e-5 -2.109845429960000e-5 -2.663218430490000e-6 -8.482246400159999e-8
0.000000000000000e0 0.000000000000000e0 0.000000000000000e0 0.000000000000000e0
0.000000000000000e0 0.000000000000000e0 0.000000000000000e0 0.000000000000000e0
0.000000000000000e0 0.000000000000000e0 0.000000000000000e0 0.000000000000000e0
0.000000000000000e0 0.000000000000000e0 0.000000000000000e0 0.000000000000000e0
0.000000000000000e0 0.000000000000000e0 0.000000000000000e0 0.000000000000000e0
0.000000000000000e0 0.000000000000000e0 0.000000000000000e0 0.000000000000000e0
0.000000000000000e0 0.000000000000000e0 0.000000000000000e0 0.000000000000000e0
0.000000000000000e0 0.000000000000000e0 0.000000000000000e0 0.000000000000000e0
0.000000000000000e0 0.000000000000000e0 0.000000000000000e0 0.000000000000000e0
0.000000000000000e0 0.000000000000000e0 0.000000000000000e0 0.000000000000000e0
0.000000000000000e0 0.000000000000000e0 0.000000000000000e0 0.000000000000000e0
0.000000000000000e0 0.000000000000000e0 0.000000000000000e0 0.000000000000000e0
0.000000000000000e0 0.000000000000000e0 0.000000000000000e0 0.000000000000000e0
0.000000000000000e0 0.000000000000000e0 0.000000000000000e0 0.000000000000000e0
0.000000000000000e0 0.000000000000000e0 0.000000000000000e0 0.000000000000000e0
0.000000000000000e0 0.000000000000000e0 0.000000000000000e0 0.000000000000000e0
0.000000000000000e0 0.000000000000000e0 0.000000000000000e0 0.000000000000000e0
0.000000000000000e0 0.000000000000000e0 0.000000000000000e0 0.000000000000000e0
0.000000000000000e0 0.000000000000000e0 0.000000000000000e0 0.000000000000000e0
0.000000000000000e0 0.000000000000000e0 0.000000000000000e0 0.000000000000000e0
0.000000000000000e0 0.000000000000000e0 0.000000000000000e0 0.000000000000000e0
0.000000000000000e0 0.000000000000000e0 0.000000000000000e0 0.000000000000000e0
0.000000000000000e0 0.000000000000000e0 0.000000000000000e0 0.000000000000000e0
0.000000000000000e0 0.000000000000000e0 0.000000000000000e0 0.000000000000000e0
0.000000000000000e0 0.000000000000000e0 0.000000000000000e0 0.000000000000000e0
0.000000000000000e0 0.000000000000000e0 0.000000000000000e0 0.000000000000000e0
0.000000000000000e0 0.000000000000000e0 0.000000000000000e0 0.000000000000000e0
0.000000000000000e0 0.000000000000000e0 0.000000000000000e0 0.000000000000000e0
0.000000000000000e0 0.000000000000000e0 0.000000000000000e0 0.000000000000000e0
0.000000000000000e0 0.000000000000000e0 0.000000000000000e0 0.000000000000000e0
0.000000000000000e0 0.000000000000000e0 0.000000000000000e0 0.000000000000000e0
0.000000000000000e0 0.000000000000000e0 0.000000000000000e0 0.000000000000000e0
0.000000000000000e0 0.000000000000000e0 0.000000000000000e0 0.000000000000000e0
0.000000000000000e0 0.000000000000000e0 0.000000000000000e0 0.000000000000000e0
0.000000000000000e0 0.000000000000000e0 0.000000000000000e0 0.000000000000000e0
0.000000000000000e0 0.000000000000000e0 0.000000000000000e0 0.000000000000000e0
0.000000000000000e0 0.000000000000000e0 0.000000000000000e0 0.000000000000000e0
0.000000000000000e0 0.000000000000000e0 0.000000000000000e0 0.000000000000000e0
0.000000000000000e0 0.000000000000000e0 0.000000000000000e0 0.000000000000000e0
0.000000000000000e0 0.000000000000000e0 0.000000000000000e0 0.000000000000000e0
0.000000000000000e0 0.000000000000000e0 0.000000000000000e0 0.000000000000000e0
0.000000000000000e0 0.000000000000000e0 0.000000000000000e0 0.000000000000000e0
0.000000000000000e0 0.000000000000000e0 0.000000000000000e0 0.000000000000000e0
0.000000000000000e0 0.000000000000000e0 0.000000000000000e0 0.000000000000000e0
0.000000000000000e0 0.000000000000000e0 0.000000000000000e0 0.000000000000000e0
0.000000000000000e0 0.000000000000000e0 0.000000000000000e0 0.000000000000000e0
0.000000000000000e0 0.000000000000000e0 0.000000000000000e0 0.000000000000000e0
0.000000000000000e0 0.000000000000000e0 0.000000000000000e0 0.000000000000000e0
0.000000000000000e0 0.000000000000000e0 0.000000000000000e0 0.000000000000000e0
0.000000000000000e0 0.000000000000000e0 0.000000000000000e0 0.000000000000000e0
0.000000000000000e0 0.000000000000000e0 0.000000000000000e0 0.000000000000000e0
0.000000000000000e0 0.000000000000000e0 0.000000000000000e0 0.000000000000000e0
0.000000000000000e0 0.000000000000000e0 0.000000000000000e0 0.000000000000000e0
0.000000000000000e0 0.000000000000000e0 0.000000000000000e0 0.000000000000000e0
0.000000000000000e0 0.000000000000000e0 0.000000000000000e0 0.000000000000000e0
0.000000000000000e0 0.000000000000000e0 0.000000000000000e0 0.000000000000000e0
0.000000000000000e0 0.000000000000000e0 0.000000000000000e0 0.000000000000000e0
0.000000000000000e0 0.000000000000000e0 0.000000000000000e0 0.000000000000000e0
0.000000000000000e0 0.000000000000000e0 0.000000000000000e0 0.000000000000000e0
0.000000000000000e0 0.000000000000000e0 0.000000000000000e0 0.000000000000000e0
0.000000000000000e0 0.000000000000000e0 0.000000000000000e0 0.000000000000000e0
0.000000000000000e0 0.000000000000000e0 0.000000000000000e0 0.000000000000000e0
0.000000000000000e0 0.000000000000000e0 0.000000000000000e0 0.000000000000000e0
0.000000000000000e0 0.000000000000000e0 0.000000000000000e0 0.000000000000000e0
0.000000000000000e0 0.000000000000000e0 0.000000000000000e0 0.000000000000000e0
0.000000000000000e0 0.000000000000000e0 0.000000000000000e0 0.000000000000000e0
0.000000000000000e0 0.000000000000000e0 0.000000000000000e0 0.000000000000000e0
0.000000000000000e0 0.000000000000000e0 0.000000000000000e0 0.000000000000000e0
0.000000000000000e0 0.000000000000000e0 0.000000000000000e0 0.000000000000000e0
0.000000000000000e0 0.000000000000000e0 0.000000000000000e0 0.000000000000000e0
0.000000000000000e0 0.000000000000000e0 0.000000000000000e0 0.000000000000000e0
0.000000000000000e0 0.000000000000000e0 0.000000000000000e0 0.000000000000000e0
0.000000000000000e0 0.000000000000000e0 0.000000000000000e0 0.000000000000000e0
0.000000000000000e0 0.000000000000000e0 0.000000000000000e0 0.000000000000000e0
0.000000000000000e0 0.000000000000000e0 0.000000000000000e0 0.000000000000000e0
0.000000000000000e0 0.000000000000000e0 0.000000000000000e0 0.000000000000000e0
0.000000000000000e0 0.000000000000000e0 0.000000000000000e0 0.000000000000000e0
0.000000000000000e0 0.000000000000000e0 0.000000000000000e0 0.000000000000000e0
0.000000000000000e0 0.000000000000000e0 0.000000000000000e0 0.000000000000000e0
0.000000000000000e0 0.000000000000000e0 0.000000000000000e0 0.000000000000000e0
0.000000000000000e0 0.000000000000000e0 0.000000000000000e0 0.000000000000000e0
0.000000000000000e0 0.000000000000000e0 0.000000000000000e0 0.000000000000000e0
0.000000000000000e0 0.000000000000000e0 0.000000000000000e0 0.000000000000000e0
0.000000000000000e0
</PP_QIJ.2.4>
<PP_QIJ.3.3 first_index="3" second_index="3" composite_index="6">
6.735576594910000e-15 7.080916972650000e-15 7.443963328690001e-15 7.825623467850001e-15
8.226851739069998e-15 8.648651421800000e-15 9.092077234720000e-15 9.558237973070000e-15
1.004829928120000e-14 1.056348656750000e-14 1.110508806800000e-14 1.167445806840000e-14
1.227302028980000e-14 1.290227144910000e-14 1.356378500160000e-14 1.425921507540000e-14
1.499030060720000e-14 1.575886969119999e-14 1.656684414990000e-14 1.741624433970000e-14
1.830919420270000e-14 1.924792657800000e-14 2.023478878480000e-14 2.127224849179999e-14
2.236289988769999e-14 2.350947016810001e-14 2.471482635490000e-14 2.598198246520001e-14
2.731410704820000e-14 2.871453110790001e-14 3.018675643239999e-14 3.173446435040000e-14
3.336152493620000e-14 3.507200668690000e-14 3.687018669600000e-14 3.876056134810000e-14
4.074785756220000e-14 4.283704461159999e-14 4.503334654940000e-14 4.734225527190000e-14
4.976954425039999e-14 5.232128296849999e-14 5.500385209860001e-14 5.782395945709999e-14
6.078865677710001e-14 6.390535734200000e-14 6.718185452169999e-14 7.062634126090000e-14
7.424743056500000e-14 7.805417703750001e-14 8.205609952109999e-14 8.626320489970002e-14
9.068601312070001e-14 9.533558350029995e-14 1.002235423780000e-13 1.053621121870000e-13
1.107641420200000e-13 1.164431397530000e-13 1.224133058270000e-13 1.286895687550000e-13
1.352876224500000e-13 1.422239654680000e-13 1.495159422640000e-13 1.571817865620000e-13
1.652406669470000e-13 1.737127347970000e-13 1.826191746760000e-13 1.919822572970000e-13
2.018253952209999e-13 2.121732013930000e-13 2.230515506900000e-13 2.344876446200000e-13
2.465100793420000e-13 2.591489171690001e-13 2.724357617410000e-13 2.864038370479999e-13
3.010880705090000e-13 3.165251803089999e-13 3.327537672109999e-13 3.498144110799999e-13
3.677497723500000e-13 3.866046987020000e-13 4.064263372030000e-13 4.272642521990001e-13
4.491705492480000e-13 4.722000054170000e-13 4.964102062469999e-13 5.218616897470000e-13
5.486180977749999e-13 5.767463351670000e-13 6.063167370410002e-13 6.374032446669999e-13
6.700835903570001e-13 7.044394918380002e-13 7.405568565860000e-13 7.785259966390001e-13
8.184418544240001e-13 8.604042401619999e-13 9.045180814399998e-13 9.508936855880000e-13
9.996470155020003e-13 1.050899979610000e-12 1.104780736700000e-12 1.161424016400000e-12
1.220971456040000e-12 1.283571954850000e-12 1.349382046250000e-12 1.418566289290000e-12
1.491297680130000e-12 1.567758084599999e-12 1.648138692950000e-12 1.732640497970000e-12
1.821474797500000e-12 1.914863722870001e-12 2.013040794239999e-12 2.116251504600000e-12
2.224753933590000e-12 2.338819392840001e-12 2.458733104349999e-12 2.584794913740000e-12
2.717320039990001e-12 2.856639863620000e-12 3.003102755370000e-12 3.157074947220000e-12
3.318941448230000e-12 3.489107007180001e-12 3.667997124720001e-12 3.856059117260001e-12
4.053763235530000e-12 4.261603840430000e-12 4.480100639150001e-12 4.709799984739999e-12
4.951276242220000e-12 5.205133224800001e-12 5.472005703690002e-12 5.752560995369999e-12
6.047500630159998e-12 6.357562106450000e-12 6.683520734740000e-12 7.026191576350000e-12
7.386431481429999e-12 7.765141231539998e-12 8.163267791970002e-12 8.581806679710001e-12
9.021804452640001e-12 9.484361326460002e-12 9.970633925780001e-12 1.048183817620000e-11
1.101925234470000e-11 1.158422023590000e-11 1.217815455230000e-11 1.280254042680001e-11
1.345893913580000e-11 1.414899200360000e-11 1.487442450620000e-11 1.563705058610000e-11
1.643877718760000e-11 1.728160902540000e-11 1.816765359700000e-11 1.909912645290000e-11
2.007835673590000e-11 2.110779300570000e-11 2.219000936070000e-11 2.332771187509999e-11
2.452374536480000e-11 2.578110050110000e-11 2.710292128850000e-11 2.849251292640000e-11
2.995335007320000e-11 3.148908553480000e-11 3.310355939830001e-11 3.480080863360000e-11
3.658507718800000e-11 3.846082659760000e-11 4.043274714340000e-11 4.250576957870001e-11
4.468507745869999e-11 4.697612010080000e-11 4.938462621110000e-11 5.191661820810001e-11
5.457842728139999e-11 5.737670922240001e-11 6.031846106680002e-11 6.341103858960001e-11
6.666217469799999e-11 7.007999876700000e-11 7.367305696560001e-11 7.745033362640001e-11
8.142127370939999e-11 8.559580641869999e-11 8.998437002949998e-11 9.459793798729999e-11
9.944804634659999e-11 1.045468226150000e-10 1.099070160770000e-10 1.155420296720000e-10
1.214659535070000e-10 1.276936000850000e-10 1.342405413460000e-10 1.411231475990000e-10
1.483586284560000e-10 1.559650758589999e-10 1.639615093220000e-10 1.723679234780000e-10
1.812053380830000e-10 1.904958505630000e-10 2.002626912720000e-10 2.105302815700000e-10
2.213242948920000e-10 2.326717209290000e-10 2.446009331240000e-10 2.571417596020000e-10
2.703255577580000e-10 2.841852926580000e-10 2.987556194590000e-10 3.140729700590000e-10
3.301756441910000e-10 3.471039051730000e-10 3.649000805890000e-10 3.836086681120000e-10
4.032764467620000e-10 4.239525938659999e-10 4.456888080130000e-10 4.685394383140000e-10
4.925616202850001e-10 5.178154187039999e-10 5.443639777800000e-10 5.722736790310000e-10
6.016143072530001e-10 6.324592249889999e-10 6.648855559590000e-10 6.989743778730001e-10
7.348109251490003e-10 7.724848020050000e-10 8.120902064900001e-10 8.537261659880000e-10
8.974967848040000e-10 9.435115044329997e-10 9.918853771820002e-10 1.042739353810000e-9
1.096200585920000e-9 1.152402743840000e-9 1.211486350820000e-9 1.273599134340000e-9
1.338896395450000e-9 1.407541397000000e-9 1.479705771850000e-9 1.555569951889999e-9
1.635323619190000e-9 1.719166180150000e-9 1.807307264040000e-9 1.899967247040000e-9
1.997377803189999e-9 2.099782483580000e-9 2.207437325140000e-9 2.320611490790000e-9
2.439587942250000e-9 2.564664147439999e-9 2.696152824109999e-9 2.834382721570001e-9
2.979699442510000e-9 3.132466306950000e-9 3.293065260430001e-9 3.461897828830000e-9
3.639386122030000e-9 3.825973889140000e-9 4.022127627670000e-9 4.228337749669999e-9
4.445119807579999e-9 4.673015782959999e-9 4.912595441180000e-9 5.164457755670000e-9
5.429232405060000e-9 5.707581347090001e-9 6.000200473220001e-9 6.307821348010000e-9
6.631213037619999e-9 6.971184032090001e-9 7.328584266049999e-9 7.704307243109999e-9
8.099292268990002e-9 8.514526799220000e-9 8.951048907030001e-9 9.409949877840001e-9
9.892376936640000e-9 1.039953611510000e-8 1.093269526580000e-8 1.149318723060000e-8
1.208241317150000e-8 1.270184607280000e-8 1.335303442130000e-8 1.403760607670000e-8
1.475727233919999e-8 1.551383222580000e-8 1.630917696640000e-8 1.714529472900000e-8
1.802427558810000e-8 1.894831674730000e-8 1.991972802940000e-8 2.094093764780000e-8
2.201449827380000e-8 2.314309341460000e-8 2.432954411820000e-8 2.557681602140000e-8
2.688802675950000e-8 2.826645375529999e-8 2.971554240690000e-8 3.123891469520000e-8
3.284037823280000e-8 3.452393577510000e-8 3.629379522040000e-8 3.815438012060002e-8
4.011034073140001e-8 4.216656562810000e-8 4.432819391619999e-8 4.660062806780000e-8
4.898954741520001e-8 5.150092233570001e-8 5.414102916270000e-8 5.691646586080000e-8
5.983416850350000e-8 6.290142859440001e-8 6.612591127610000e-8 6.951567447070000e-8
7.307918900130001e-8 7.682535974310001e-8 8.076354785810000e-8 8.490359416730000e-8
8.925584372100001e-8 9.383117162540000e-8 9.864101019300000e-8 1.036973774810000e-7
1.090129072940000e-7 1.146008807170000e-7 1.204752592700000e-7 1.266507197510000e-7
1.331426908690000e-7 1.399673917530000e-7 1.471418724220000e-7 1.546840563390000e-7
1.626127851300000e-7 1.709478656070000e-7 1.797101191770000e-7 1.889214338000000e-7
1.986048185890000e-7 2.087844612110000e-7 2.194857882260000e-7 2.307355285080000e-7
2.425617799120000e-7 2.549940793530000e-7 2.680634764650001e-7 2.818026110340001e-7
2.962457943810000e-7 3.114290949179999e-7 3.273904280709999e-7 3.441696508010000e-7
3.618086609640000e-7 3.803515017410000e-7 3.998444714159999e-7 4.203362387610000e-7
4.418779643120000e-7 4.645234278580000e-7 4.883291624320000e-7 5.133545951529999e-7
5.396621952669999e-7 5.673176297489999e-7 5.963899268500001e-7 6.269516480100000e-7
6.590790685350000e-7 6.928523675170001e-7 7.283558274440000e-7 7.656780440010001e-7
8.049121465900001e-7 8.461560300999999e-7 8.895125985109999e-7 9.350900209320001e-7
9.830020007009999e-7 1.033368058220000e-6 1.086313828230000e-6 1.141971372230000e-6
1.200479506820000e-6 1.261984148870000e-6 1.326638678190000e-6 1.394604318720000e-6
1.466050539230000e-6 1.541155474310000e-6 1.620106366930000e-6 1.703100033500000e-6
1.790343352630000e-6 1.882053778790000e-6 1.978459882140000e-6 2.079801915820001e-6
2.186332412190000e-6 2.298316809310000e-6 2.416034109450000e-6 2.539777570990000e-6
2.669855435540000e-6 2.806591692140000e-6 2.950326880190000e-6 3.101418933310001e-6
3.260244066060000e-6 3.427197705679999e-6 3.602695471270000e-6 3.787174202660000e-6
3.981093041499999e-6 4.184934567310000e-6 4.399205991190001e-6 4.624440410060000e-6
4.861198124580000e-6 5.110068023950001e-6 5.371669040820000e-6 5.646651680130001e-6
5.935699625269999e-6 6.239531425679999e-6 6.558902270010001e-6 6.894605848879999e-6
7.247476312150001e-6 7.618390325009999e-6 8.008269228249999e-6 8.418081307720000e-6
8.848844178410003e-6 9.301627289180001e-6 9.777554553820000e-6 1.027780711510000e-5
1.080362624830000e-5 1.135631641100000e-5 1.193724844730000e-5 1.254786295260000e-5
1.318967380890000e-5 1.386427189740000e-5 1.457332899850000e-5 1.531860188770000e-5
1.610193663760000e-5 1.692527313660000e-5 1.779064983340000e-5 1.870020872130000e-5
1.965620057150000e-5 2.066099042930000e-5 2.171706338610000e-5 2.282703063980000e-5
2.399363585970000e-5 2.521976186900000e-5 2.650843766180000e-5 2.786284577110000e-5
2.928633000420000e-5 3.078240356460000e-5 3.235475757860000e-5 3.400727004739999e-5
3.574401524410000e-5 3.756927357920000e-5 3.948754195610000e-5 4.150354464130000e-5
4.362224467380000e-5 4.584885584119999e-5 4.818885524820001e-5 5.064799650819999e-5
5.323232358710000e-5 5.594818533070000e-5 5.880225071030000e-5 6.180152481930000e-5
6.495336565810001e-5 6.826550174519999e-5 7.174605059410000e-5 7.540353809729999e-5
7.924691886060000e-5 8.328559753480000e-5 8.752945118970000e-5 9.198885278219999e-5
9.667469576959999e-5 1.015984199230000e-4 1.067720383950000e-4 1.122081661050000e-4
1.179200495050000e-4 1.239215977770000e-4 1.302274155550000e-4 1.368528372130000e-4
1.438139628180000e-4 1.511276958080000e-4 1.588117824830000e-4 1.668848533870000e-4
1.753664666800000e-4 1.842771535720000e-4 1.936384659330000e-4 2.034730261690000e-4
2.138045794600000e-4 2.246580484840000e-4 2.360595907250000e-4 2.480366584810000e-4
2.606180617120000e-4 2.738340338200000e-4 2.877163005290000e-4 3.022981519720000e-4
3.176145181440000e-4 3.337020478590000e-4 3.505991913690000e-4 3.683462867950000e-4
3.869856505510000e-4 4.065616719090000e-4 4.271209119010000e-4 4.487122067270000e-4
4.713867758750000e-4 4.951983351230000e-4 5.202032146619999e-4 5.464604825100000e-4
5.740320734679999e-4 6.029829238200000e-4 6.333811120149999e-4 6.652980055750001e-4
6.988084144630000e-4 7.339907511700000e-4 7.709271977830000e-4 8.097038802889999e-4
8.504110504130001e-4 8.931432752390000e-4 9.379996349279997e-4 9.850839288150002e-4
1.034504890190000e-3 1.086376410080000e-3 1.140817770310000e-3 1.197953886190000e-3
1.257915559190000e-3 1.320839739840000e-3 1.386869801260000e-3 1.456155823640000e-3
1.528854889940000e-3 1.605131393360000e-3 1.685157356580000e-3 1.769112763450000e-3
1.857185903270000e-3 1.949573728050000e-3 2.046482223090000e-3 2.148126791180000e-3
2.254732650810000e-3 2.366535248590000e-3 2.483780686260000e-3 2.606726162590000e-3
2.735640430300000e-3 2.870804268500000e-3 3.012510970520000e-3 3.161066847770000e-3
3.316791749370001e-3 3.480019597970000e-3 3.651098941800001e-3 3.830393522920000e-3
4.018282861799999e-3 4.215162858130000e-3 4.421446407760000e-3 4.637564035620001e-3
4.863964544450000e-3 5.101115678910000e-3 5.349504804790000e-3 5.609639602780000e-3
5.882048776250000e-3 6.167282772330001e-3 6.465914515440002e-3 6.778540152420000e-3
7.105779808059999e-3 7.448278349930000e-3 7.806706160940000e-3 8.181759918279997e-3
8.574163376709999e-3 8.984668154449999e-3 9.414054519410000e-3 9.863132173200000e-3
1.033274103050000e-2 1.082375199070000e-2 1.133706769840000e-2 1.187362328960000e-2
1.243438711950000e-2 1.302036146760000e-2 1.363258321600000e-2 1.427212449520000e-2
1.494009329240000e-2 1.563763401720000e-2 1.636592801700000e-2 1.712619403640000e-2
1.791968861360000e-2 1.874770640500000e-2 1.961158043020000e-2 2.051268222950000e-2
2.145242192270000e-2 2.243224816030000e-2 2.345364795650000e-2 2.451814639130000e-2
2.562730617220000e-2 2.678272703960000e-2 2.798604500530000e-2 2.923893140860000e-2
3.054309177460000e-2 3.190026446140000e-2 3.331221907710000e-2 3.478075465160000e-2
3.630769754480000e-2 3.789489907220000e-2 3.954423283050001e-2 4.125759170119999e-2
4.303688451390000e-2 4.488403234660000e-2 4.680096444350000e-2 4.878961372660000e-2
5.085191188030000e-2 5.298978398590000e-2 5.520514268330000e-2 5.749988183759999e-2
5.987586968850000e-2 6.233494145889999e-2 6.487889140260000e-2 6.750946426950000e-2
7.022834616660000e-2 7.303715479870000e-2 7.593742906820000e-2 7.893061801990000e-2
8.201806911609999e-2 8.520101583079999e-2 8.848056455370001e-2 9.185768079890000e-2
9.533317471560000e-2 9.890768590370001e-2 1.025816675400000e-1 1.063553698260000e-1
1.102288227780000e-1 1.142018183780000e-1 1.182738921190000e-1 1.224443039800000e-1
1.267120188800000e-1 1.310756866640000e-1 1.355336216770000e-1 1.400837820190000e-1
1.447237485380000e-1 1.494507036850000e-1 1.542614103190000e-1 1.591521905880000e-1
1.641189050260000e-1 1.691569320010000e-1 1.742611476800000e-1 1.794259066990000e-1
1.846450236970000e-1 1.899117559570000e-1 1.952187873410000e-1 2.005582137710000e-1
2.059215304980000e-1 2.112996214250000e-1 2.166827507510000e-1 2.220605572320000e-1
2.274220513480000e-1 2.327556156920000e-1 2.380490088810000e-1 2.432893733270000e-1
2.484632471690000e-1 2.535565807030000e-1 2.585547576150000e-1 2.634426213400000e-1
2.682045068320000e-1 2.728242780330000e-1 2.772853713110000e-1 2.815708450870000e-1
2.856634358630000e-1 2.895456208200000e-1 2.931996871030000e-1 2.966078078670000e-1
2.997521251000000e-1 3.026148391690000e-1 3.051783049830000e-1 3.074251345580000e-1
3.093383057200000e-1 3.109012765770000e-1 3.120981052770000e-1 3.129135745110000e-1
3.133333200800000e-1 3.133439627490000e-1 3.129332425030000e-1 3.120901542100000e-1
3.108050835780000e-1 3.090699421990000e-1 3.068783003550000e-1 3.042255161640000e-1
3.011088595800000e-1 2.975276296340000e-1 2.934832632930000e-1 2.889794342150000e-1
2.840221396700000e-1 2.786197738790000e-1 2.727831860320000e-1 2.665257212670000e-1
2.598632429600000e-1 2.528141347720000e-1 2.453992809860000e-1 2.376420238460000e-1
2.295680967480000e-1 2.212055323820000e-1 2.125845451250000e-1 2.037373872650000e-1
1.946981789400000e-1 1.855027119750000e-1 1.761882281620000e-1 1.667931728770000e-1
1.573569253180000e-1 1.479195070210000e-1 1.385212707250000e-1 1.292025720450000e-1
1.200034267930000e-1 1.109631571730000e-1 1.021200304370000e-1 9.351089391330001e-2
8.517081060260001e-2 7.713269980230000e-2 6.942698740660001e-2 6.208127065890000e-2
5.512000219499999e-2 4.856419818740000e-2 4.243117528190000e-2 3.673432079249999e-2
3.148290028200000e-2 2.668190619280000e-2 2.233195060330000e-2 1.842920445520000e-2
1.496538473610000e-2 1.192779010420000e-2 9.299384322260002e-3 7.058925638690000e-3
5.181138939719999e-3 3.636926136190000e-3 2.393608880180000e-3 1.415196395690000e-3
6.626700192019999e-4 9.790944685180001e-5 -3.045834902490000e-4 -5.673445139849999e-4
-7.130833591009999e-4 -7.642909823849999e-4 -7.428254207169999e-4 -6.694801318180000e-4
-5.635390339990000e-4 -4.423228168300001e-4 -3.207314350440000e-4 -2.107880416030000e-4
-1.211899898020000e-4 -5.687297422700000e-5 -1.859493025100000e-5 -2.547024209099999e-6
0.000000000000000e0 0.000000000000000e0 0.000000000000000e0 0.000000000000000e0
0.000000000000000e0 0.000000000000000e0 0.000000000000000e0 0.000000000000000e0
0.000000000000000e0 0.000000000000000e0 0.000000000000000e0 0.000000000000000e0
0.000000000000000e0 0.000000000000000e0 0.000000000000000e0 0.000000000000000e0
0.000000000000000e0 0.000000000000000e0 0.000000000000000e0 0.000000000000000e0
0.000000000000000e0 0.000000000000000e0 0.000000000000000e0 0.000000000000000e0
0.000000000000000e0 0.000000000000000e0 0.000000000000000e0 0.000000000000000e0
0.000000000000000e0 0.000000000000000e0 0.000000000000000e0 0.000000000000000e0
0.000000000000000e0 0.000000000000000e0 0.000000000000000e0 0.000000000000000e0
0.000000000000000e0 0.000000000000000e0 0.000000000000000e0 0.000000000000000e0
0.000000000000000e0 0.000000000000000e0 0.000000000000000e0 0.000000000000000e0
0.000000000000000e0 0.000000000000000e0 0.000000000000000e0 0.000000000000000e0
0.000000000000000e0 0.000000000000000e0 0.000000000000000e0 0.000000000000000e0
0.000000000000000e0 0.000000000000000e0 0.000000000000000e0 0.000000000000000e0
0.000000000000000e0 0.000000000000000e0 0.000000000000000e0 0.000000000000000e0
0.000000000000000e0 0.000000000000000e0 0.000000000000000e0 0.000000000000000e0
0.000000000000000e0 0.000000000000000e0 0.000000000000000e0 0.000000000000000e0
0.000000000000000e0 0.000000000000000e0 0.000000000000000e0 0.000000000000000e0
0.000000000000000e0 0.000000000000000e0 0.000000000000000e0 0.000000000000000e0
0.000000000000000e0 0.000000000000000e0 0.000000000000000e0 0.000000000000000e0
0.000000000000000e0 0.000000000000000e0 0.000000000000000e0 0.000000000000000e0
0.000000000000000e0 0.000000000000000e0 0.000000000000000e0 0.000000000000000e0
0.000000000000000e0 0.000000000000000e0 0.000000000000000e0 0.000000000000000e0
0.000000000000000e0 0.000000000000000e0 0.000000000000000e0 0.000000000000000e0
0.000000000000000e0 0.000000000000000e0 0.000000000000000e0 0.000000000000000e0
0.000000000000000e0 0.000000000000000e0 0.000000000000000e0 0.000000000000000e0
0.000000000000000e0 0.000000000000000e0 0.000000000000000e0 0.000000000000000e0
0.000000000000000e0 0.000000000000000e0 0.000000000000000e0 0.000000000000000e0
0.000000000000000e0 0.000000000000000e0 0.000000000000000e0 0.000000000000000e0
0.000000000000000e0 0.000000000000000e0 0.000000000000000e0 0.000000000000000e0
0.000000000000000e0 0.000000000000000e0 0.000000000000000e0 0.000000000000000e0
0.000000000000000e0 0.000000000000000e0 0.000000000000000e0 0.000000000000000e0
0.000000000000000e0 0.000000000000000e0 0.000000000000000e0 0.000000000000000e0
0.000000000000000e0 0.000000000000000e0 0.000000000000000e0 0.000000000000000e0
0.000000000000000e0 0.000000000000000e0 0.000000000000000e0 0.000000000000000e0
0.000000000000000e0 0.000000000000000e0 0.000000000000000e0 0.000000000000000e0
0.000000000000000e0 0.000000000000000e0 0.000000000000000e0 0.000000000000000e0
0.000000000000000e0 0.000000000000000e0 0.000000000000000e0 0.000000000000000e0
0.000000000000000e0 0.000000000000000e0 0.000000000000000e0 0.000000000000000e0
0.000000000000000e0 0.000000000000000e0 0.000000000000000e0 0.000000000000000e0
0.000000000000000e0 0.000000000000000e0 0.000000000000000e0 0.000000000000000e0
0.000000000000000e0 0.000000000000000e0 0.000000000000000e0 0.000000000000000e0
0.000000000000000e0 0.000000000000000e0 0.000000000000000e0 0.000000000000000e0
0.000000000000000e0 0.000000000000000e0 0.000000000000000e0 0.000000000000000e0
0.000000000000000e0 0.000000000000000e0 0.000000000000000e0 0.000000000000000e0
0.000000000000000e0 0.000000000000000e0 0.000000000000000e0 0.000000000000000e0
0.000000000000000e0 0.000000000000000e0 0.000000000000000e0 0.000000000000000e0
0.000000000000000e0 0.000000000000000e0 0.000000000000000e0 0.000000000000000e0
0.000000000000000e0 0.000000000000000e0 0.000000000000000e0 0.000000000000000e0
0.000000000000000e0 0.000000000000000e0 0.000000000000000e0 0.000000000000000e0
0.000000000000000e0 0.000000000000000e0 0.000000000000000e0 0.000000000000000e0
0.000000000000000e0 0.000000000000000e0 0.000000000000000e0 0.000000000000000e0
0.000000000000000e0 0.000000000000000e0 0.000000000000000e0 0.000000000000000e0
0.000000000000000e0 0.000000000000000e0 0.000000000000000e0 0.000000000000000e0
0.000000000000000e0 0.000000000000000e0 0.000000000000000e0 0.000000000000000e0
0.000000000000000e0 0.000000000000000e0 0.000000000000000e0 0.000000000000000e0
0.000000000000000e0 0.000000000000000e0 0.000000000000000e0 0.000000000000000e0
0.000000000000000e0 0.000000000000000e0 0.000000000000000e0 0.000000000000000e0
0.000000000000000e0 0.000000000000000e0 0.000000000000000e0 0.000000000000000e0
0.000000000000000e0 0.000000000000000e0 0.000000000000000e0 0.000000000000000e0
0.000000000000000e0 0.000000000000000e0 0.000000000000000e0 0.000000000000000e0
0.000000000000000e0 0.000000000000000e0 0.000000000000000e0 0.000000000000000e0
0.000000000000000e0 0.000000000000000e0 0.000000000000000e0 0.000000000000000e0
0.000000000000000e0 0.000000000000000e0 0.000000000000000e0 0.000000000000000e0
0.000000000000000e0 0.000000000000000e0 0.000000000000000e0 0.000000000000000e0
0.000000000000000e0 0.000000000000000e0 0.000000000000000e0 0.000000000000000e0
0.000000000000000e0 0.000000000000000e0 0.000000000000000e0 0.000000000000000e0
0.000000000000000e0 0.000000000000000e0 0.000000000000000e0 0.000000000000000e0
0.000000000000000e0 0.000000000000000e0 0.000000000000000e0 0.000000000000000e0
0.000000000000000e0 0.000000000000000e0 0.000000000000000e0 0.000000000000000e0
0.000000000000000e0 0.000000000000000e0 0.000000000000000e0 0.000000000000000e0
0.000000000000000e0 0.000000000000000e0 0.000000000000000e0 0.000000000000000e0
0.000000000000000e0 0.000000000000000e0 0.000000000000000e0 0.000000000000000e0
0.000000000000000e0 0.000000000000000e0 0.000000000000000e0 0.000000000000000e0
0.000000000000000e0 0.000000000000000e0 0.000000000000000e0 0.000000000000000e0
0.000000000000000e0 0.000000000000000e0 0.000000000000000e0 0.000000000000000e0
0.000000000000000e0 0.000000000000000e0 0.000000000000000e0 0.000000000000000e0
0.000000000000000e0 0.000000000000000e0 0.000000000000000e0 0.000000000000000e0
0.000000000000000e0 0.000000000000000e0 0.000000000000000e0 0.000000000000000e0
0.000000000000000e0 0.000000000000000e0 0.000000000000000e0 0.000000000000000e0
0.000000000000000e0 0.000000000000000e0 0.000000000000000e0 0.000000000000000e0
0.000000000000000e0 0.000000000000000e0 0.000000000000000e0 0.000000000000000e0
0.000000000000000e0 0.000000000000000e0 0.000000000000000e0 0.000000000000000e0
0.000000000000000e0
</PP_QIJ.3.3>
<PP_QIJ.3.4 first_index="3" second_index="4" composite_index="9">
5.591617402660001e-15 5.878305740580001e-15 6.179692902589999e-15 6.496532513430000e-15
6.829616836960001e-15 7.179778757300001e-15 7.547893861440000e-15 7.934882628649999e-15
8.341712732179998e-15 8.769401458950002e-15 9.219018253260000e-15 9.691687390990001e-15
1.018859079090000e-14 1.071097096980000e-14 1.126013415010000e-14 1.183745352519999e-14
1.244437269390000e-14 1.308240926980000e-14 1.375315867600000e-14 1.445829813510000e-14
1.519959086220000e-14 1.597889047480000e-14 1.679814562700000e-14 1.765940488270000e-14
1.856482183799999e-14 1.951666050580000e-14 2.051730097780000e-14 2.156924537530000e-14
2.267512410620000e-14 2.383770244220000e-14 2.505988743340000e-14 2.634473517750000e-14
2.769545846160000e-14 2.911543479610000e-14 3.060821485960001e-14 3.217753137800000e-14
3.382730845810000e-14 3.556167139979999e-14 3.738495701150000e-14 3.930172445449998e-14
4.131676664320000e-14 4.343512222970000e-14 4.566208820329999e-14 4.800323313560000e-14
5.046441110470000e-14 5.305177633370000e-14 5.577179857919999e-14 5.863127930910002e-14
6.163736870980000e-14 6.479758356540001e-14 6.811982605340000e-14 7.161240350450003e-14
7.528404917499999e-14 7.914394408440001e-14 8.320173997299998e-14 8.746758343580002e-14
9.195214129480002e-14 9.666662727080000e-14 1.016228300240000e-13 1.068331426330000e-13
1.123105935790000e-13 1.180688793320000e-13 1.241223985900000e-13 1.304862882900000e-13
1.371764614560000e-13 1.442096469870000e-13 1.516034314920000e-13 1.593763032630000e-13
1.675476985070000e-13 1.761380499440000e-13 1.851688379030000e-13 1.946626440300000e-13
2.046432077560000e-13 2.151354856570000e-13 2.261657138600000e-13 2.377614736430000e-13
2.499517604060000e-13 2.627670561740000e-13 2.762394058139999e-13 2.904024971690000e-13
3.052917452900000e-13 3.209443809960000e-13 3.373995439669999e-13 3.546983806150000e-13
3.728841469700001e-13 3.920023168409998e-13 4.121006955289999e-13 4.332295393590000e-13
4.554416813470001e-13 4.787926633140000e-13 5.033408747640001e-13 5.291476988910000e-13
5.562776660660001e-13 5.847986151950000e-13 6.147818633559997e-13 6.463023841200000e-13
6.794389950320000e-13 7.142745546860001e-13 7.508961699210001e-13 7.893954136280001e-13
8.298685537300001e-13 8.724167939000003e-13 9.171465266220002e-13 9.641695992279999e-13
1.013603593570000e-12 1.065572120030000e-12 1.120205126620000e-12 1.177639223900000e-12
1.238018026610000e-12 1.301492512730000e-12 1.368221401020000e-12 1.438371547920000e-12
1.512118364740000e-12 1.589646256310000e-12 1.671149082050000e-12 1.756830640750000e-12
1.846905180120000e-12 1.941597932580000e-12 2.041145678420000e-12 2.145797337840000e-12
2.255814593440000e-12 2.371472544490000e-12 2.493060394890001e-12 2.620882176230000e-12
2.755257508100000e-12 2.896522397260000e-12 3.045030077830000e-12 3.201151894550000e-12
3.365278231329999e-12 3.537819487380001e-12 3.719207103450000e-12 3.909894640600000e-12
4.110358914359999e-12 4.321101186989999e-12 4.542648420859999e-12 4.775554596160000e-12
5.020402096069999e-12 5.277803163020000e-12 5.548401429630000e-12 5.832873528030003e-12
6.131930781840000e-12 6.446320984770000e-12 6.776830270490000e-12 7.124285078349999e-12
7.489554219840001e-12 7.873551051089999e-12 8.277235756620000e-12 8.701617750340001e-12
9.147758199509997e-12 9.616772678179997e-12 1.010983395670000e-11 1.062817493400000e-11
1.117309172070000e-11 1.174594687990000e-11 1.234817283420000e-11 1.298127544720000e-11
1.364683778920000e-11 1.434652409560000e-11 1.508208392800000e-11 1.585535654910000e-11
1.666827552180000e-11 1.752287354340000e-11 1.842128752930000e-11 1.936576395530000e-11
2.035866447540000e-11 2.140247182650000e-11 2.249979603690000e-11 2.365338095240000e-11
2.486611109660000e-11 2.614101888430000e-11 2.748129220340000e-11 2.889028238600000e-11
3.037151258849999e-11 3.192868660060001e-11 3.356569810689999e-11 3.528664042240001e-11
3.709581672750000e-11 3.899775082830001e-11 4.099719846739999e-11 4.309915921559999e-11
4.530888897310001e-11 4.763191311100000e-11 5.007404028729999e-11 5.264137697090000e-11
5.534034271019999e-11 5.817768618480001e-11 6.116050207960000e-11 6.429624882450000e-11
6.759276724370000e-11 7.105830016030000e-11 7.470151300690002e-11 7.853151549290000e-11
8.255788438150002e-11 8.679068743580000e-11 9.124050859200000e-11 9.591847442279999e-11
1.008362819590000e-10 1.060062279340000e-10 1.114412395330000e-10 1.171549067140000e-10
1.231615161880000e-10 1.294760871410000e-10 1.361144087840000e-10 1.430930798380000e-10
1.504295500300000e-10 1.581421637270000e-10 1.662502057990000e-10 1.747739498450000e-10
1.837347088730000e-10 1.931548885970000e-10 2.030580434570000e-10 2.134689355090000e-10
2.244135963400000e-10 2.359193921540000e-10 2.480150921960000e-10 2.607309406809999e-10
2.740987324149999e-10 2.881518922900001e-10 3.029255588540000e-10 3.184566721660000e-10
3.347840661579999e-10 3.519485657270001e-10 3.699930888040001e-10 3.889627536660000e-10
4.089049917320001e-10 4.298696661610000e-10 4.519091965130001e-10 4.750786898109999e-10
4.994360783170001e-10 5.250422643760001e-10 5.519612726800000e-10 5.802604103389999e-10
6.100104351610000e-10 6.412857325559997e-10 6.741645015079999e-10 7.087289500839999e-10
7.450655009620000e-10 7.832650074940001e-10 8.234229808549999e-10 8.656398288200000e-10
9.100211067959998e-10 9.566777817129999e-10 1.005726509450000e-9 1.057289926470000e-9
1.111496956440000e-9 1.168483132490000e-9 1.228390936100000e-9 1.291370153270000e-9
1.357578248990000e-9 1.427180760900000e-9 1.500351713100000e-9 1.577274051220000e-9
1.658140099770000e-9 1.743152042930000e-9 1.832522429950000e-9 1.926474706560000e-9
2.025243773480001e-9 2.129076573680000e-9 2.238232709669999e-9 2.352985092480000e-9
2.473620623810000e-9 2.600440913300000e-9 2.733763032400000e-9 2.873920307020000e-9
3.021263150700000e-9 3.176159940550000e-9 3.338997938050000e-9 3.510184257070001e-9
3.690146881530000e-9 3.879335735110000e-9 4.078223805920000e-9 4.287308328729999e-9
4.507112027839999e-9 4.738184423570001e-9 4.981103205819998e-9 5.236475677939999e-9
5.504940274650001e-9 5.787168157679999e-9 6.083864893320000e-9 6.395772215770002e-9
6.723669881020001e-9 7.068377615630002e-9 7.430757165399998e-9 7.811714449059997e-9
8.212201822330000e-9 8.633220457929999e-9 9.075822847609999e-9 9.541115432440000e-9
1.003026136780000e-8 1.054448342990000e-8 1.108506707190000e-8 1.165336363550000e-8
1.225079372840000e-8 1.287885077340001e-8 1.353910474110000e-8 1.423320607180000e-8
1.496288980010000e-8 1.572997989000000e-8 1.653639379200000e-8 1.738414723430000e-8
1.827535925890000e-8 1.921225751560000e-8 2.019718382820000e-8 2.123260004460001e-8
2.232109418740000e-8 2.346538691930000e-8 2.466833833990000e-8 2.593295513020000e-8
2.726239806390000e-8 2.865998990250000e-8 3.012922369550000e-8 3.167377150570000e-8
3.329749358070000e-8 3.500444799520000e-8 3.679890078619999e-8 3.868533660820000e-8
4.066846993320000e-8 4.275325682489999e-8 4.494490731539999e-8 4.724889841660000e-8
4.967098779670000e-8 5.221722815770001e-8 5.489398234929999e-8 5.770793925620000e-8
6.066613049920000e-8 6.377594799090003e-8 6.704516239120001e-8 7.048194250670001e-8
7.409487568339999e-8 7.789298924400000e-8 8.188577302190001e-8 8.608320304899998e-8
9.049576645579998e-8 9.513448764650001e-8 1.000109558130000e-7 1.051373538580000e-7
1.105264887970000e-7 1.161918237170000e-7 1.221475113740000e-7 1.284084294990000e-7
1.349902179270000e-7 1.419093176060000e-7 1.491830116240000e-7 1.568294683130000e-7
1.648677865750000e-7 1.733180435170000e-7 1.822013445260000e-7 1.915398759040000e-7
2.013569602000000e-7 2.116771143620000e-7 2.225261108700000e-7 2.339310419960000e-7
2.459203873450000e-7 2.585240848529999e-7 2.717736054090000e-7 2.857020313030000e-7
3.003441386690000e-7 3.157364841570001e-7 3.319174960230000e-7 3.489275698799999e-7
3.668091693400000e-7 3.856069318030000e-7 4.053677796420000e-7 4.261410370760000e-7
4.479785530090000e-7 4.709348301479999e-7 4.950671607090000e-7 5.204357690570001e-7
5.471039616330000e-7 5.751382845270001e-7 6.046086891029999e-7 6.355887060770000e-7
6.681556284779999e-7 7.023907039479999e-7 7.383793368570000e-7 7.762113007229998e-7
8.159809614809999e-7 8.577875121270001e-7 9.017352193440001e-7 9.479336826920001e-7
9.964981070229999e-7 1.047549588780000e-6 1.101215416900000e-6 1.157629389030000e-6
1.216932143880000e-6 1.279271510510000e-6 1.344802875390000e-6 1.413689568180000e-6
1.486103267150000e-6 1.562224425210000e-6 1.642242717710000e-6 1.726357512940000e-6
1.814778366640000e-6 1.907725541640000e-6 2.005430553920000e-6 2.108136746520000e-6
2.216099892530000e-6 2.329588828790000e-6 2.448886121820000e-6 2.574288767540000e-6
2.706108926590000e-6 2.844674696970000e-6 2.990330925880000e-6 3.143440062890001e-6
3.304383056300000e-6 3.473560295020000e-6 3.651392598250000e-6 3.838322255350000e-6
4.034814118430000e-6 4.241356750270000e-6 4.458463630520000e-6 4.686674422879999e-6
4.926556306520001e-6 5.178705374909999e-6 5.443748105430000e-6 5.722342903269999e-6
6.015181723520000e-6 6.322991775209998e-6 6.646537311430000e-6 6.986621509990000e-6
7.344088448930000e-6 7.719825181850000e-6 8.114763917940000e-6 8.529884311920002e-6
8.966215869509998e-6 9.424840474060002e-6 9.906895040489999e-6 1.041357430290000e-5
1.094613374220000e-5 1.150589266160000e-5 1.209423741610000e-5 1.271262480450000e-5
1.336258563200000e-5 1.404572845120000e-5 1.476374349110000e-5 1.551840678330000e-5
1.631158449430000e-5 1.714523747550000e-5 1.802142604040000e-5 1.894231498120000e-5
1.991017883580000e-5 2.092740741840000e-5 2.199651162540000e-5 2.312012953180000e-5
2.430103279100000e-5 2.554213335370000e-5 2.684649052070000e-5 2.821731834730000e-5
2.965799341480000e-5 3.117206298890000e-5 3.276325358190001e-5 3.443547993980000e-5
3.619285447460000e-5 3.803969716330000e-5 3.998054593590000e-5 4.202016757679999e-5
4.416356916390001e-5 4.641601007160000e-5 4.878301456450000e-5 5.127038501110000e-5
5.388421574560001e-5 5.663090761099999e-5 5.951718321430000e-5 6.255010292860000e-5
6.573708167780001e-5 6.908590654100001e-5 7.260475521420000e-5 7.630221537310000e-5
8.018730497540000e-5 8.426949355049999e-5 8.855872452060000e-5 9.306543860320000e-5
9.780059834359999e-5 1.027757138330000e-4 1.080028696640000e-4 1.134947531850000e-4
1.192646841060000e-4 1.253266455300000e-4 1.316953164660000e-4 1.383861058900000e-4
1.454151884360000e-4 1.527995417790000e-4 1.605569857940000e-4 1.687062235670000e-4
1.772668843480000e-4 1.862595685230000e-4 1.957058947000000e-4 2.056285490090000e-4
2.160513367060000e-4 2.269992361780000e-4 2.384984554730000e-4 2.505764914420001e-4
2.632621916230000e-4 2.765858189780000e-4 2.905791196080000e-4 3.052753935690000e-4
3.207095689260000e-4 3.369182791770000e-4 3.539399441930000e-4 3.718148548080000e-4
3.905852612300000e-4 4.102954654079999e-4 4.309919175300000e-4 4.527233168120000e-4
4.755407167510000e-4 4.994976350190000e-4 5.246501681810001e-4 5.510571114190000e-4
5.787800834590000e-4 6.078836569010000e-4 6.384354941460000e-4 6.705064891390000e-4
7.041709151269999e-4 7.395065786610000e-4 7.765949800650001e-4 8.155214805829999e-4
8.563754764510001e-4 8.992505801250001e-4 9.442448088940001e-4 9.914607811289999e-4
1.041005920400000e-3 1.092992667750000e-3 1.147538702250000e-3 1.204767170280000e-3
1.264806923630000e-3 1.327792766650000e-3 1.393865712850000e-3 1.463173251080000e-3
1.535869621490000e-3 1.612116101640000e-3 1.692081302860000e-3 1.775941477170000e-3
1.863880834870000e-3 1.956091873140000e-3 2.052775715700000e-3 2.154142463740000e-3
2.260411558380000e-3 2.371812154560000e-3 2.488583506740000e-3 2.610975366250000e-3
2.739248390560000e-3 2.873674564260000e-3 3.014537631950000e-3 3.162133542849999e-3
3.316770907100000e-3 3.478771463490000e-3 3.648470558580000e-3 3.826217636790000e-3
4.012376741230000e-3 4.207327024800000e-3 4.411463271130001e-3 4.625196424790000e-3
4.848954130020000e-3 5.083181277400000e-3 5.328340557410001e-3 5.584913020000000e-3
5.853398639040000e-3 6.134316880420000e-3 6.428207272319999e-3 6.735629976239999e-3
7.057166356960000e-3 7.393419549530000e-3 7.745015021350000e-3 8.112601126770000e-3
8.496849652030001e-3 8.898456347400000e-3 9.318141443930001e-3 9.756650151230000e-3
1.021475313290000e-2 1.069324695560000e-2 1.119295450820000e-2 1.171472538530000e-2
1.225943623170000e-2 1.282799104230000e-2 1.342132141020000e-2 1.404038672050000e-2
1.468617427940000e-2 1.535969937520000e-2 1.606200526160000e-2 1.679416305740000e-2
1.755727155260000e-2 1.835245691420000e-2 1.918087228060000e-2 2.004369723640000e-2
2.094213715650000e-2 2.187742240950000e-2 2.285080740800000e-2 2.386356949550000e-2
2.491700765580000e-2 2.601244103400000e-2 2.715120725340000e-2 2.833466051670000e-2
2.956416947520000e-2 3.084111485270000e-2 3.216688680700000e-2 3.354288201550000e-2
3.497050046680000e-2 3.645114194320000e-2 3.798620217760000e-2 3.957706866710000e-2
4.122511612759999e-2 4.293170157250001e-2 4.469815899820000e-2 4.652579366160000e-2
4.841587593190000e-2 5.036963470369999e-2 5.238825035430001e-2 5.447284723479999e-2
5.662448567969999e-2 5.884415352610000e-2 6.113275713260000e-2 6.349111189030000e-2
6.591993222150000e-2 6.841982106310001e-2 7.099125883500000e-2 7.363459189809999e-2
7.635002050790001e-2 7.913758627580001e-2 8.199715915430000e-2 8.492842396580000e-2
8.793086650230000e-2 9.100375922740000e-2 9.414614661889999e-2 9.735683019820002e-2
1.006343532980000e-1 1.039769856280000e-1 1.073827077130000e-1 1.108491952720000e-1
1.143738036320000e-1 1.179535522740000e-1 1.215851096110000e-1 1.252647781280000e-1
1.289884799940000e-1 1.327517433080000e-1 1.365496891090000e-1 1.403770193270000e-1
1.442280058360000e-1 1.480964808060000e-1 1.519758285370000e-1 1.558589789860000e-1
1.597384032040000e-1 1.636061108980000e-1 1.674536503590000e-1 1.712721109800000e-1
1.750521286210000e-1 1.787838940510000e-1 1.824571647230000e-1 1.860612801150000e-1
1.895851808840000e-1 1.930174320620000e-1 1.963462505030000e-1 1.995595368070000e-1
2.026449118860000e-1 2.055897583470000e-1 2.083812668260000e-1 2.110064873720000e-1
2.134523859460000e-1 2.157059060640000e-1 2.177540355470000e-1 2.195838783110000e-1
2.211827310390000e-1 2.225381645550000e-1 2.236381096050000e-1 2.244709467090000e-1
2.250255996550000e-1 2.252916321230000e-1 2.252593468510000e-1 2.249198866520000e-1
2.242653365120000e-1 2.232888259160000e-1 2.219846304460000e-1 2.203482716190000e-1
2.183766138490000e-1 2.160679573560000e-1 2.134221257520000e-1 2.104405470000000e-1
2.071263263960000e-1 2.034843101870000e-1 1.995211384160000e-1 1.952452856210000e-1
1.906670880020000e-1 1.857987557480000e-1 1.806543692720000e-1 1.752498582000000e-1
1.696029620900000e-1 1.637331720070000e-1 1.576616522500000e-1 1.514111417450000e-1
1.450058348460000e-1 1.384712415350000e-1 1.318340273220000e-1 1.251218334170000e-1
1.183630780910000e-1 1.115867404730000e-1 1.048221283840000e-1 9.809863214240000e-2
9.144546666380000e-2 8.489140448140001e-2 7.846450268570000e-2 7.219182707180000e-2
6.609917707800000e-2 6.021081535030000e-2 5.454920597250000e-2 4.913476556330000e-2
4.398563153420000e-2 3.911745183660000e-2 3.454320047720000e-2 3.027302295770000e-2
2.631411557070000e-2 2.267064217490000e-2 1.934369165480000e-2 1.633127874990000e-2
1.362839031500000e-2 1.122707833880000e-2 9.116600220380001e-3 7.283605876600001e-3
5.712370253740000e-3 4.385068752630000e-3 3.282091980660000e-3 2.382395143340000e-3
1.663876324230000e-3 1.103776920790000e-3 6.790966570460000e-4 3.670149426480001e-4
1.453099521030000e-4 -6.036484084840001e-6 -1.011573306710000e-4 -1.521129859240000e-4
-1.699574655440000e-4 -1.645633155950000e-4 -1.444755944730000e-4 -1.168018572770000e-4
-8.714525954639999e-5 -5.958799787230000e-5 -3.673231171619999e-5 -1.980616928870000e-5
-8.840531801299999e-6 -2.924709189900000e-6 -5.457519074090000e-7 -1.702263626670000e-8
0.000000000000000e0 0.000000000000000e0 0.000000000000000e0 0.000000000000000e0
0.000000000000000e0 0.000000000000000e0 0.000000000000000e0 0.000000000000000e0
0.000000000000000e0 0.000000000000000e0 0.000000000000000e0 0.000000000000000e0
0.000000000000000e0 0.000000000000000e0 0.000000000000000e0 0.000000000000000e0
0.000000000000000e0 0.000000000000000e0 0.000000000000000e0 0.000000000000000e0
0.000000000000000e0 0.000000000000000e0 0.000000000000000e0 0.000000000000000e0
0.000000000000000e0 0.000000000000000e0 0.000000000000000e0 0.000000000000000e0
0.000000000000000e0 0.000000000000000e0 0.000000000000000e0 0.000000000000000e0
0.000000000000000e0 0.000000000000000e0 0.000000000000000e0 0.000000000000000e0
0.000000000000000e0 0.000000000000000e0 0.000000000000000e0 0.000000000000000e0
0.000000000000000e0 0.000000000000000e0 0.000000000000000e0 0.000000000000000e0
0.000000000000000e0 0.000000000000000e0 0.000000000000000e0 0.000000000000000e0
0.000000000000000e0 0.000000000000000e0 0.000000000000000e0 0.000000000000000e0
0.000000000000000e0 0.000000000000000e0 0.000000000000000e0 0.000000000000000e0
0.000000000000000e0 0.000000000000000e0 0.000000000000000e0 0.000000000000000e0
0.000000000000000e0 0.000000000000000e0 0.000000000000000e0 0.000000000000000e0
0.000000000000000e0 0.000000000000000e0 0.000000000000000e0 0.000000000000000e0
0.000000000000000e0 0.000000000000000e0 0.000000000000000e0 0.000000000000000e0
0.000000000000000e0 0.000000000000000e0 0.000000000000000e0 0.000000000000000e0
0.000000000000000e0 0.000000000000000e0 0.000000000000000e0 0.000000000000000e0
0.000000000000000e0 0.000000000000000e0 0.000000000000000e0 0.000000000000000e0
0.000000000000000e0 0.000000000000000e0 0.000000000000000e0 0.000000000000000e0
0.000000000000000e0 0.000000000000000e0 0.000000000000000e0 0.000000000000000e0
0.000000000000000e0 0.000000000000000e0 0.000000000000000e0 0.000000000000000e0
0.000000000000000e0 0.000000000000000e0 0.000000000000000e0 0.000000000000000e0
0.000000000000000e0 0.000000000000000e0 0.000000000000000e0 0.000000000000000e0
0.000000000000000e0 0.000000000000000e0 0.000000000000000e0 0.000000000000000e0
0.000000000000000e0 0.000000000000000e0 0.000000000000000e0 0.000000000000000e0
0.000000000000000e0 0.000000000000000e0 0.000000000000000e0 0.000000000000000e0
0.000000000000000e0 0.000000000000000e0 0.000000000000000e0 0.000000000000000e0
0.000000000000000e0 0.000000000000000e0 0.000000000000000e0 0.000000000000000e0
0.000000000000000e0 0.000000000000000e0 0.000000000000000e0 0.000000000000000e0
0.000000000000000e0 0.000000000000000e0 0.000000000000000e0 0.000000000000000e0
0.000000000000000e0 0.000000000000000e0 0.000000000000000e0 0.000000000000000e0
0.000000000000000e0 0.000000000000000e0 0.000000000000000e0 0.000000000000000e0
0.000000000000000e0 0.000000000000000e0 0.000000000000000e0 0.000000000000000e0
0.000000000000000e0 0.000000000000000e0 0.000000000000000e0 0.000000000000000e0
0.000000000000000e0 0.000000000000000e0 0.000000000000000e0 0.000000000000000e0
0.000000000000000e0 0.000000000000000e0 0.000000000000000e0 0.000000000000000e0
0.000000000000000e0 0.000000000000000e0 0.000000000000000e0 0.000000000000000e0
0.000000000000000e0 0.000000000000000e0 0.000000000000000e0 0.000000000000000e0
0.000000000000000e0 0.000000000000000e0 0.000000000000000e0 0.000000000000000e0
0.000000000000000e0 0.000000000000000e0 0.000000000000000e0 0.000000000000000e0
0.000000000000000e0 0.000000000000000e0 0.000000000000000e0 0.000000000000000e0
0.000000000000000e0 0.000000000000000e0 0.000000000000000e0 0.000000000000000e0
0.000000000000000e0 0.000000000000000e0 0.000000000000000e0 0.000000000000000e0
0.000000000000000e0 0.000000000000000e0 0.000000000000000e0 0.000000000000000e0
0.000000000000000e0 0.000000000000000e0 0.000000000000000e0 0.000000000000000e0
0.000000000000000e0 0.000000000000000e0 0.000000000000000e0 0.000000000000000e0
0.000000000000000e0 0.000000000000000e0 0.000000000000000e0 0.000000000000000e0
0.000000000000000e0 0.000000000000000e0 0.000000000000000e0 0.000000000000000e0
0.000000000000000e0 0.000000000000000e0 0.000000000000000e0 0.000000000000000e0
0.000000000000000e0 0.000000000000000e0 0.000000000000000e0 0.000000000000000e0
0.000000000000000e0 0.000000000000000e0 0.000000000000000e0 0.000000000000000e0
0.000000000000000e0 0.000000000000000e0 0.000000000000000e0 0.000000000000000e0
0.000000000000000e0 0.000000000000000e0 0.000000000000000e0 0.000000000000000e0
0.000000000000000e0 0.000000000000000e0 0.000000000000000e0 0.000000000000000e0
0.000000000000000e0 0.000000000000000e0 0.000000000000000e0 0.000000000000000e0
0.000000000000000e0 0.000000000000000e0 0.000000000000000e0 0.000000000000000e0
0.000000000000000e0 0.000000000000000e0 0.000000000000000e0 0.000000000000000e0
0.000000000000000e0 0.000000000000000e0 0.000000000000000e0 0.000000000000000e0
0.000000000000000e0 0.000000000000000e0 0.000000000000000e0 0.000000000000000e0
0.000000000000000e0 0.000000000000000e0 0.000000000000000e0 0.000000000000000e0
0.000000000000000e0 0.000000000000000e0 0.000000000000000e0 0.000000000000000e0
0.000000000000000e0 0.000000000000000e0 0.000000000000000e0 0.000000000000000e0
0.000000000000000e0 0.000000000000000e0 0.000000000000000e0 0.000000000000000e0
0.000000000000000e0 0.000000000000000e0 0.000000000000000e0 0.000000000000000e0
0.000000000000000e0 0.000000000000000e0 0.000000000000000e0 0.000000000000000e0
0.000000000000000e0 0.000000000000000e0 0.000000000000000e0 0.000000000000000e0
0.000000000000000e0 0.000000000000000e0 0.000000000000000e0 0.000000000000000e0
0.000000000000000e0 0.000000000000000e0 0.000000000000000e0 0.000000000000000e0
0.000000000000000e0 0.000000000000000e0 0.000000000000000e0 0.000000000000000e0
0.000000000000000e0 0.000000000000000e0 0.000000000000000e0 0.000000000000000e0
0.000000000000000e0 0.000000000000000e0 0.000000000000000e0 0.000000000000000e0
0.000000000000000e0 0.000000000000000e0 0.000000000000000e0 0.000000000000000e0
0.000000000000000e0 0.000000000000000e0 0.000000000000000e0 0.000000000000000e0
0.000000000000000e0 0.000000000000000e0 0.000000000000000e0 0.000000000000000e0
0.000000000000000e0 0.000000000000000e0 0.000000000000000e0 0.000000000000000e0
0.000000000000000e0 0.000000000000000e0 0.000000000000000e0 0.000000000000000e0
0.000000000000000e0 0.000000000000000e0 0.000000000000000e0 0.000000000000000e0
0.000000000000000e0 0.000000000000000e0 0.000000000000000e0 0.000000000000000e0
0.000000000000000e0 0.000000000000000e0 0.000000000000000e0 0.000000000000000e0
0.000000000000000e0 0.000000000000000e0 0.000000000000000e0 0.000000000000000e0
0.000000000000000e0
</PP_QIJ.3.4>
<PP_QIJ.4.4 first_index="4" second_index="4" composite_index="10">
4.621953876039999e-15 4.858926503880001e-15 5.108048976999999e-15 5.369944231210001e-15
5.645267140910001e-15 5.934706156590000e-15 6.238985026390001e-15 6.558864605780000e-15
6.895144760100002e-15 7.248666364670000e-15 7.620313407399998e-15 8.011015199220001e-15
8.421748697820000e-15 8.853540950590000e-15 9.307471662729998e-15 9.784675897099998e-15
1.028634691250000e-14 1.081373914730000e-14 1.136817135640000e-14 1.195102990850000e-14
1.256377225330001e-14 1.320793056510000e-14 1.388511557450000e-14 1.459702059640000e-14
1.534542576310001e-14 1.613220247690000e-14 1.695931808840000e-14 1.782884081670000e-14
1.874294492040000e-14 1.970391613500000e-14 2.071415738800000e-14 2.177619480750000e-14
2.289268403890000e-14 2.406641688550000e-14 2.530032828940000e-14 2.659750367000000e-14
2.796118663990000e-14 2.939478711490001e-14 3.090188984080001e-14 3.248626335729999e-14
3.415186942129999e-14 3.590287291270000e-14 3.774365224979999e-14 3.967881033680001e-14
4.171318607370001e-14 4.385186645599999e-14 4.610019929520000e-14 4.846380659029998e-14
5.094859858660000e-14 5.356078855369999e-14 5.630690832220000e-14 5.919382461660001e-14
6.222875622560000e-14 6.541929205279997e-14 6.877341009290000e-14 7.229949738110002e-14
7.600637096430002e-14 7.990329994890001e-14 8.400002867839998e-14 8.830680109849999e-14
9.283438637320000e-14 9.759410581270000e-14 1.025978611830000e-13 1.078581644650000e-13
1.133881691430000e-13 1.192017030940000e-13 1.253133031640000e-13 1.317382515200000e-13
1.384926138600000e-13 1.455932795860000e-13 1.530580040410000e-13 1.609054528990000e-13
1.691552488440000e-13 1.778280206360000e-13 1.869454546910000e-13 1.965303493110000e-13
2.066066716910000e-13 2.171996178470000e-13 2.283356756229999e-13 2.400426909180000e-13
2.523499373230000e-13 2.652881893140000e-13 2.788897992050000e-13 2.931887780460000e-13
3.082208806700000e-13 3.240236950940001e-13 3.406367365130000e-13 3.581015461030001e-13
3.764617949000000e-13 3.957633929960000e-13 4.160546043430001e-13 4.373861674290000e-13
4.598114221580001e-13 4.833864432240000e-13 5.081701803240000e-13 5.342246055650000e-13
5.616148684259999e-13 5.904094586620000e-13 6.206803775670000e-13 6.525033180090000e-13
6.859578537049998e-13 7.211276381940000e-13 7.581006140090002e-13 7.969692325860000e-13
8.378306854329999e-13 8.807871471579999e-13 9.259460309620000e-13 9.734202572190004e-13
1.023328535840000e-12 1.075795663100000e-12 1.130952833710000e-12 1.188937968840000e-12
1.249896061010000e-12 1.313979536640000e-12 1.381348637210000e-12 1.452171819910000e-12
1.526626178880000e-12 1.604897888050000e-12 1.687182666650000e-12 1.773686268610000e-12
1.864624997060000e-12 1.960226245150000e-12 2.060729064710000e-12 2.166384763960000e-12
2.277457535910000e-12 2.394225118960000e-12 2.516979491420001e-12 2.646027601560000e-12
2.781692135160000e-12 2.924312322350000e-12 3.074244785900000e-12 3.231864432910000e-12
3.397565392269999e-12 3.571762000189999e-12 3.754889836230000e-12 3.947406812459999e-12
4.149794318450001e-12 4.362558425020000e-12 4.586231149620000e-12 4.821371786640000e-12
5.068568305910000e-12 5.328438822940001e-12 5.601633144470002e-12 5.888834393300000e-12
6.190760716439998e-12 6.508167080800000e-12 6.841847161000002e-12 7.192635323899998e-12
7.561408714890002e-12 7.949089451250000e-12 8.356646927790001e-12 8.785100240830001e-12
9.235520736420000e-12 9.709034689209998e-12 1.020682611860000e-11 1.073013974950000e-11
1.128028412440000e-11 1.185863487580000e-11 1.246663816540000e-11 1.310581430060000e-11
1.377776153560000e-11 1.448416006820000e-11 1.522677624050000e-11 1.600746695610000e-11
1.682818432290000e-11 1.769098053410000e-11 1.859801299990000e-11 1.955154974190000e-11
2.055397506420000e-11 2.160779551480000e-11 2.271564615380000e-11 2.388029714140000e-11
2.510466066530000e-11 2.639179822160000e-11 2.774492827039999e-11 2.916743428350000e-11
3.066287320369999e-11 3.223498433950001e-11 3.388769871449999e-11 3.562514889650001e-11
3.745167933119999e-11 3.937185720440000e-11 4.139048386230000e-11 4.351260681640000e-11
4.574353236500000e-11 4.808883886020000e-11 5.055439065670000e-11 5.314635277460001e-11
5.587120631439999e-11 5.873576466240000e-11 6.174719052670001e-11 6.491301384659999e-11
6.824115062040002e-11 7.173992269849999e-11 7.541807859050000e-11 7.928481534040000e-11
8.334980152199998e-11 8.762320141400000e-11 9.211570041440000e-11 9.683853175730000e-11
1.018035046000000e-10 1.070230335520000e-10 1.125101697090000e-10 1.182786332950000e-10
1.243428479589999e-10 1.307179768420000e-10 1.374199604900000e-10 1.444655567080000e-10
1.518723824650000e-10 1.596589579340000e-10 1.678447528030000e-10 1.764502349550000e-10
1.854969216400000e-10 1.950074332790000e-10 2.050055500160000e-10 2.155162711770000e-10
2.265658777760001e-10 2.381819982220000e-10 2.503936773980000e-10 2.632314492800000e-10
2.767274132770000e-10 2.909153144890000e-10 3.058306280780001e-10 3.215106479579999e-10
3.379945800430001e-10 3.553236402670001e-10 3.735411576289999e-10 3.926926825280000e-10
4.128261006410000e-10 4.339917526490000e-10 4.562425600940000e-10 4.796341576910001e-10
5.042250324189999e-10 5.300766697500001e-10 5.572537073670000e-10 5.858240967620000e-10
6.158592731240001e-10 6.474343339319999e-10 6.806282267020000e-10 7.155239463600001e-10
7.522087427330000e-10 7.907743386760000e-10 8.313171593810001e-10 8.739385734400001e-10
9.187451462639997e-10 9.658489064960001e-10 1.015367626080000e-9 1.067425114670000e-9
1.122151529180000e-9 1.179683699120000e-9 1.240165468700000e-9 1.303748056380000e-9
1.370590432960000e-9 1.440859718900000e-9 1.514731602180000e-9 1.592390777410000e-9
1.674031407600000e-9 1.759857609480000e-9 1.850083963750000e-9 1.944936051500000e-9
2.044651018070000e-9 2.149478165890000e-9 2.259679577590001e-9 2.375530771190001e-9
2.497321388750001e-9 2.625355920370001e-9 2.759954465330000e-9 2.901453532150000e-9
3.050206879760000e-9 3.206586401690000e-9 3.370983055640000e-9 3.543807840660000e-9
3.725492824439999e-9 3.916492223210000e-9 4.117283537000000e-9 4.328368743119999e-9
4.550275550749999e-9 4.783558719830000e-9 5.028801447589998e-9 5.286616826100000e-9
5.557649374470000e-9 5.842576649710001e-9 6.142110939949998e-9 6.457001044580000e-9
6.788034145560001e-9 7.136037774570001e-9 7.501881881080001e-9 7.886481006260002e-9
8.290796568399998e-9 8.715839265320000e-9 9.162671600030002e-9 9.632410535610001e-9
1.012623028630000e-8 1.064536525160000e-8 1.119111310030000e-8 1.176483801320000e-8
1.236797409170000e-8 1.300202894030000e-8 1.366858743400000e-8 1.436931567780000e-8
1.510596516880000e-8 1.588037717270000e-8 1.669448732310000e-8 1.755033045760000e-8
1.845004570050000e-8 1.939588180740000e-8 2.039020278160000e-8 2.143549378020000e-8
2.253436732090000e-8 2.368956980820000e-8 2.490398839320000e-8 2.618065818430000e-8
2.752276982829999e-8 2.893367747880000e-8 3.041690717320000e-8 3.197616563850000e-8
3.361534954810001e-8 3.533855525290000e-8 3.715008901020000e-8 3.905447773650001e-8
4.105648031159999e-8 4.316109946050000e-8 4.537359424409999e-8 4.769949318979999e-8
5.014460809360001e-8 5.271504852930001e-8 5.541723710040001e-8 5.825792547300001e-8
6.124421122859999e-8 6.438355558069999e-8 6.768380199739998e-8 7.115319577740000e-8
7.480040462800000e-8 7.863454029630001e-8 8.266518130729999e-8 8.690239686580002e-8
9.135677198060000e-8 9.603943387600001e-8 1.009620797530000e-7 1.061370059700000e-7
1.115771387230000e-7 1.172960662830000e-7 1.233080728960000e-7 1.296281744080000e-7
1.362721557140000e-7 1.432566101280000e-7 1.505989807570000e-7 1.583176039980000e-7
1.664317552590000e-7 1.749616970130000e-7 1.839287293130000e-7 1.933552428920000e-7
2.032647749690000e-7 2.136820679170000e-7 2.246331309240000e-7 2.361453048090000e-7
2.482473301490000e-7 2.609694188880001e-7 2.743433296000000e-7 2.884024466110000e-7
3.031818631479999e-7 3.187184687440000e-7 3.350510411070000e-7 3.522203426800000e-7
3.702692221300000e-7 3.892427210299999e-7 4.091881859700001e-7 4.301553864130000e-7
4.521966385469999e-7 4.753669354790000e-7 4.997240840560000e-7 5.253288486780001e-7
5.522451024520000e-7 5.805399860470000e-7 6.102840746619998e-7 6.415515535090000e-7
6.744204022410000e-7 7.089725887920000e-7 7.452942730930001e-7 7.834760211780000e-7
8.236130302050002e-7 8.658053649350000e-7 9.101582062739999e-7 9.567821124730001e-7
1.005793293630000e-6 1.057313900170000e-6 1.111472326030000e-6 1.168403527280000e-6
1.228249356920000e-6 1.291158916800000e-6 1.357288927350000e-6 1.426804116230000e-6
1.499877626610000e-6 1.576691446380000e-6 1.657436859040000e-6 1.742314917560000e-6
1.831536942390000e-6 1.925325044650000e-6 2.023912676020000e-6 2.127545206470000e-6
2.236480531340001e-6 2.350989709320000e-6 2.471357632660000e-6 2.597883731550000e-6
2.730882714070000e-6 2.870685343800000e-6 3.017639256770000e-6 3.172109819809999e-6
3.334481032440000e-6 3.505156474410001e-6 3.684560301230000e-6 3.873138290050000e-6
4.071358938520000e-6 4.279714619220000e-6 4.498722792450000e-6 4.728927280290001e-6
4.970899605140000e-6 5.225240395780001e-6 5.492580864459999e-6 5.773584358499999e-6
6.068947990270001e-6 6.379404349220000e-6 6.705723300380000e-6 7.048713873320001e-6
7.409226246349999e-6 7.788153830550000e-6 8.186435458710001e-6 8.605057684300002e-6
9.045057196009999e-6 9.507523353650001e-6 9.993600851310001e-6 1.050449251420000e-5
1.104146223590000e-5 1.160583806250000e-5 1.219901543180000e-5 1.282246057410000e-5
1.347771408360000e-5 1.416639466830000e-5 1.489020308700000e-5 1.565092628360000e-5
1.645044172660000e-5 1.729072196660000e-5 1.817383941900000e-5 1.910197138680000e-5
2.007740533190000e-5 2.110254440880000e-5 2.217991327420000e-5 2.331216418330000e-5
2.450208338980000e-5 2.575259786260000e-5 2.706678233460000e-5 2.844786670090000e-5
2.989924378180000e-5 3.142447746979999e-5 3.302731127750000e-5 3.471167730750000e-5
3.648170566290000e-5 3.834173432090000e-5 4.029631949100000e-5 4.235024648140000e-5
4.450854109730001e-5 4.677648159740000e-5 4.915961123390000e-5 5.166375140540000e-5
5.429501544980000e-5 5.705982310930001e-5 5.996491569760000e-5 6.301737200400002e-5
6.622462496699999e-5 6.959447915570001e-5 7.313512909480001e-5 7.685517847370003e-5
8.076366027960001e-5 8.487005789970002e-5 8.918432723370000e-5 9.371691986669999e-5
9.847880734900000e-5 1.034815066340000e-4 1.087371067250000e-4 1.142582965950000e-4
1.200583944170000e-4 1.261513781910000e-4 1.325519178080000e-4 1.392754086200000e-4
1.463380066000000e-4 1.537566651340000e-4 1.615491735410000e-4 1.697341973850000e-4
1.783313206610000e-4 1.873610899350000e-4 1.968450605250000e-4 2.068058448060000e-4
2.172671627370000e-4 2.282538946950000e-4 2.397921367250000e-4 2.519092582960000e-4
2.646339626760000e-4 2.779963500300000e-4 2.920279833530000e-4 3.067619573580000e-4
3.222329704310000e-4 3.384773997830000e-4 3.555333799230000e-4 3.734408845810000e-4
3.922418122189999e-4 4.119800752700000e-4 4.327016932399999e-4 4.544548898230000e-4
4.772901941870000e-4 5.012605465660000e-4 5.264214083330000e-4 5.528308767020000e-4
5.805498042349999e-4 6.096419233030001e-4 6.401739756870000e-4 6.722158474870001e-4
7.058407095080001e-4 7.411251633019999e-4 7.781493930520000e-4 8.169973234680000e-4
8.577567838790001e-4 9.005196787030002e-4 9.453821644810001e-4 9.924448336359999e-4
1.041812905160000e-3 1.093596422400000e-3 1.147910458060000e-3 1.204875326730000e-3
1.264616804910000e-3 1.327266358830000e-3 1.392961380230000e-3 1.461845430040000e-3
1.534068490380000e-3 1.609787224750000e-3 1.689165246660000e-3 1.772373396720000e-3
1.859590028260000e-3 1.951001301580000e-3 2.046801486810000e-3 2.147193275370000e-3
2.252388100060000e-3 2.362606463650000e-3 2.478078275940000e-3 2.599043199110000e-3
2.725751001240000e-3 2.858461917680000e-3 2.997447020140001e-3 3.142988593060001e-3
3.295380516910000e-3 3.454928658030000e-3 3.621951264370000e-3 3.796779366640001e-3
3.979757184169999e-3 4.171242534600000e-3 4.371607246750001e-3 4.581237575500000e-3
4.800534617669999e-3 5.029914727780000e-3 5.269809932189999e-3 5.520668340319999e-3
5.782954551280000e-3 6.057150054060000e-3 6.343753619490000e-3 6.643281681769999e-3
6.956268707250000e-3 7.283267548030001e-3 7.624849777650001e-3 7.981606005890001e-3
8.354146169570001e-3 8.743099795910002e-3 9.149116234779999e-3 9.572864855890000e-3
1.001503520670000e-2 1.047633712650000e-2 1.095750081190000e-2 1.145927682820000e-2
1.198243606210000e-2 1.252776960820000e-2 1.309608858550000e-2 1.368822387470000e-2
1.430502577120000e-2 1.494736354590000e-2 1.561612490630000e-2 1.631221534870000e-2
1.703655739510000e-2 1.779008970320000e-2 1.857376604340000e-2 1.938855412950000e-2
2.023543429610000e-2 2.111539801100000e-2 2.202944621070000e-2 2.297858745060000e-2
2.396383585560000e-2 2.498620886120000e-2 2.604672473210000e-2 2.714639984790000e-2
2.828624574030000e-2 2.946726587370000e-2 3.069045215290000e-2 3.195678114860000e-2
3.326721002660000e-2 3.462267216960000e-2 3.602407248040000e-2 3.747228235500000e-2
3.896813431560000e-2 4.051241629310000e-2 4.210586555180001e-2 4.374916224830000e-2
4.544292261740001e-2 4.718769178240001e-2 4.898393618520000e-2 5.083203563660001e-2
5.273227498740000e-2 5.468483542540000e-2 5.668978540400000e-2 5.874707121420000e-2
6.085650721119999e-2 6.301776571600000e-2 6.523036661140001e-2 6.749366665940000e-2
6.980684857220000e-2 7.216890987099999e-2 7.457865157790000e-2 7.703466678619999e-2
7.953532916650000e-2 8.207878146850000e-2 8.466292408810000e-2 8.728540377580000e-2
8.994360257080000e-2 9.263462705329999e-2 9.535529801430000e-2 9.810214065340000e-2
1.008713754200000e-1 1.036589096280000e-1 1.064603299680000e-1 1.092708960790000e-1
1.120855353030000e-1 1.148988388120000e-1 1.177050592390000e-1 1.204981100160000e-1
1.232715665670000e-1 1.260186695630000e-1 1.287323303970000e-1 1.314051390850000e-1
1.340293747600000e-1 1.365970189590000e-1 1.390997718590000e-1 1.415290716510000e-1
1.438761171980000e-1 1.461318941390000e-1 1.482872045510000e-1 1.503327002980000e-1
1.522589201500000e-1 1.540563307220000e-1 1.557153712810000e-1 1.572265024060000e-1
1.585802584520000e-1 1.597673037400000e-1 1.607784923220000e-1 1.616049311440000e-1
1.622380463580000e-1 1.626696524670000e-1 1.628920239530000e-1 1.628979689360000e-1
1.626809043680000e-1 1.622349321950000e-1 1.615549158410000e-1 1.606365562900000e-1
1.594764670190000e-1 1.580722469000000e-1 1.564225501960000e-1 1.545271526770000e-1
1.523870128570000e-1 1.500043273070000e-1 1.473825789630000e-1 1.445265773660000e-1
1.414424897250000e-1 1.381378617480000e-1 1.346216272060000e-1 1.309041052380000e-1
1.269969845120000e-1 1.229132934060000e-1 1.186673555380000e-1 1.142747300870000e-1
1.097521365260000e-1 1.051173635660000e-1 1.003891623360000e-1 9.558712403259999e-2
9.073154254620000e-2 8.584326281999999e-2 8.094351597630000e-2 7.605374254120000e-2
7.119540537820001e-2 6.638979423719999e-2 6.165782410540000e-2 5.701982981770000e-2
5.249535963340000e-2 4.810297071000000e-2 4.386002959630000e-2 3.978252101300000e-2
3.588486829249999e-2 3.217976889050000e-2 2.867804836680000e-2 2.538853614110000e-2
2.231796616910000e-2 1.947090543630000e-2 1.684971283980000e-2 1.445453060930000e-2
1.228330991250000e-2 1.033187169490000e-2 8.594003122490001e-3 7.061589239429999e-3
5.724778619080000e-3 4.572180904550000e-3 3.591093208380000e-3 2.767751401150000e-3
2.087601390730000e-3 1.535584612320000e-3 1.096431154030000e-3 7.549532788289999e-4
4.963316207489999e-4 3.063860853060000e-4 1.718235249070000e-4 8.045464363250000e-5
2.137336060770000e-5 -1.451283677850000e-5 -3.345757306060000e-5 -4.044099403220001e-5
-3.960578869850000e-5 -3.426354087760000e-5 -2.692751261929999e-5 -1.937128234560000e-5
-1.271146528750000e-5 -7.511373354270001e-6 -3.900928056140000e-6 -1.706429845900000e-6
-5.819228857990001e-7 -1.318961830580000e-7 -1.296094964570000e-8 1.590522776420000e-11
0.000000000000000e0 0.000000000000000e0 0.000000000000000e0 0.000000000000000e0
0.000000000000000e0 0.000000000000000e0 0.000000000000000e0 0.000000000000000e0
0.000000000000000e0 0.000000000000000e0 0.000000000000000e0 0.000000000000000e0
0.000000000000000e0 0.000000000000000e0 0.000000000000000e0 0.000000000000000e0
0.000000000000000e0 0.000000000000000e0 0.000000000000000e0 0.000000000000000e0
0.000000000000000e0 0.000000000000000e0 0.000000000000000e0 0.000000000000000e0
0.000000000000000e0 0.000000000000000e0 0.000000000000000e0 0.000000000000000e0
0.000000000000000e0 0.000000000000000e0 0.000000000000000e0 0.000000000000000e0
0.000000000000000e0 0.000000000000000e0 0.000000000000000e0 0.000000000000000e0
0.000000000000000e0 0.000000000000000e0 0.000000000000000e0 0.000000000000000e0
0.000000000000000e0 0.000000000000000e0 0.000000000000000e0 0.000000000000000e0
0.000000000000000e0 0.000000000000000e0 0.000000000000000e0 0.000000000000000e0
0.000000000000000e0 0.000000000000000e0 0.000000000000000e0 0.000000000000000e0
0.000000000000000e0 0.000000000000000e0 0.000000000000000e0 0.000000000000000e0
0.000000000000000e0 0.000000000000000e0 0.000000000000000e0 0.000000000000000e0
0.000000000000000e0 0.000000000000000e0 0.000000000000000e0 0.000000000000000e0
0.000000000000000e0 0.000000000000000e0 0.000000000000000e0 0.000000000000000e0
0.000000000000000e0 0.000000000000000e0 0.000000000000000e0 0.000000000000000e0
0.000000000000000e0 0.000000000000000e0 0.000000000000000e0 0.000000000000000e0
0.000000000000000e0 0.000000000000000e0 0.000000000000000e0 0.000000000000000e0
0.000000000000000e0 0.000000000000000e0 0.000000000000000e0 0.000000000000000e0
0.000000000000000e0 0.000000000000000e0 0.000000000000000e0 0.000000000000000e0
0.000000000000000e0 0.000000000000000e0 0.000000000000000e0 0.000000000000000e0
0.000000000000000e0 0.000000000000000e0 0.000000000000000e0 0.000000000000000e0
0.000000000000000e0 0.000000000000000e0 0.000000000000000e0 0.000000000000000e0
0.000000000000000e0 0.000000000000000e0 0.000000000000000e0 0.000000000000000e0
0.000000000000000e0 0.000000000000000e0 0.000000000000000e0 0.000000000000000e0
0.000000000000000e0 0.000000000000000e0 0.000000000000000e0 0.000000000000000e0
0.000000000000000e0 0.000000000000000e0 0.000000000000000e0 0.000000000000000e0
0.000000000000000e0 0.000000000000000e0 0.000000000000000e0 0.000000000000000e0
0.000000000000000e0 0.000000000000000e0 0.000000000000000e0 0.000000000000000e0
0.000000000000000e0 0.000000000000000e0 0.000000000000000e0 0.000000000000000e0
0.000000000000000e0 0.000000000000000e0 0.000000000000000e0 0.000000000000000e0
0.000000000000000e0 0.000000000000000e0 0.000000000000000e0 0.000000000000000e0
0.000000000000000e0 0.000000000000000e0 0.000000000000000e0 0.000000000000000e0
0.000000000000000e0 0.000000000000000e0 0.000000000000000e0 0.000000000000000e0
0.000000000000000e0 0.000000000000000e0 0.000000000000000e0 0.000000000000000e0
0.000000000000000e0 0.000000000000000e0 0.000000000000000e0 0.000000000000000e0
0.000000000000000e0 0.000000000000000e0 0.000000000000000e0 0.000000000000000e0
0.000000000000000e0 0.000000000000000e0 0.000000000000000e0 0.000000000000000e0
0.000000000000000e0 0.000000000000000e0 0.000000000000000e0 0.000000000000000e0
0.000000000000000e0 0.000000000000000e0 0.000000000000000e0 0.000000000000000e0
0.000000000000000e0 0.000000000000000e0 0.000000000000000e0 0.000000000000000e0
0.000000000000000e0 0.000000000000000e0 0.000000000000000e0 0.000000000000000e0
0.000000000000000e0 0.000000000000000e0 0.000000000000000e0 0.000000000000000e0
0.000000000000000e0 0.000000000000000e0 0.000000000000000e0 0.000000000000000e0
0.000000000000000e0 0.000000000000000e0 0.000000000000000e0 0.000000000000000e0
0.000000000000000e0 0.000000000000000e0 0.000000000000000e0 0.000000000000000e0
0.000000000000000e0 0.000000000000000e0 0.000000000000000e0 0.000000000000000e0
0.000000000000000e0 0.000000000000000e0 0.000000000000000e0 0.000000000000000e0
0.000000000000000e0 0.000000000000000e0 0.000000000000000e0 0.000000000000000e0
0.000000000000000e0 0.000000000000000e0 0.000000000000000e0 0.000000000000000e0
0.000000000000000e0 0.000000000000000e0 0.000000000000000e0 0.000000000000000e0
0.000000000000000e0 0.000000000000000e0 0.000000000000000e0 0.000000000000000e0
0.000000000000000e0 0.000000000000000e0 0.000000000000000e0 0.000000000000000e0
0.000000000000000e0 0.000000000000000e0 0.000000000000000e0 0.000000000000000e0
0.000000000000000e0 0.000000000000000e0 0.000000000000000e0 0.000000000000000e0
0.000000000000000e0 0.000000000000000e0 0.000000000000000e0 0.000000000000000e0
0.000000000000000e0 0.000000000000000e0 0.000000000000000e0 0.000000000000000e0
0.000000000000000e0 0.000000000000000e0 0.000000000000000e0 0.000000000000000e0
0.000000000000000e0 0.000000000000000e0 0.000000000000000e0 0.000000000000000e0
0.000000000000000e0 0.000000000000000e0 0.000000000000000e0 0.000000000000000e0
0.000000000000000e0 0.000000000000000e0 0.000000000000000e0 0.000000000000000e0
0.000000000000000e0 0.000000000000000e0 0.000000000000000e0 0.000000000000000e0
0.000000000000000e0 0.000000000000000e0 0.000000000000000e0 0.000000000000000e0
0.000000000000000e0 0.000000000000000e0 0.000000000000000e0 0.000000000000000e0
0.000000000000000e0 0.000000000000000e0 0.000000000000000e0 0.000000000000000e0
0.000000000000000e0 0.000000000000000e0 0.000000000000000e0 0.000000000000000e0
0.000000000000000e0 0.000000000000000e0 0.000000000000000e0 0.000000000000000e0
0.000000000000000e0 0.000000000000000e0 0.000000000000000e0 0.000000000000000e0
0.000000000000000e0 0.000000000000000e0 0.000000000000000e0 0.000000000000000e0
0.000000000000000e0 0.000000000000000e0 0.000000000000000e0 0.000000000000000e0
0.000000000000000e0 0.000000000000000e0 0.000000000000000e0 0.000000000000000e0
0.000000000000000e0 0.000000000000000e0 0.000000000000000e0 0.000000000000000e0
0.000000000000000e0 0.000000000000000e0 0.000000000000000e0 0.000000000000000e0
0.000000000000000e0 0.000000000000000e0 0.000000000000000e0 0.000000000000000e0
0.000000000000000e0 0.000000000000000e0 0.000000000000000e0 0.000000000000000e0
0.000000000000000e0 0.000000000000000e0 0.000000000000000e0 0.000000000000000e0
0.000000000000000e0 0.000000000000000e0 0.000000000000000e0 0.000000000000000e0
0.000000000000000e0 0.000000000000000e0 0.000000000000000e0 0.000000000000000e0
0.000000000000000e0 0.000000000000000e0 0.000000000000000e0 0.000000000000000e0
0.000000000000000e0 0.000000000000000e0 0.000000000000000e0 0.000000000000000e0
0.000000000000000e0 0.000000000000000e0 0.000000000000000e0 0.000000000000000e0
0.000000000000000e0
</PP_QIJ.4.4>
</PP_AUGMENTATION>
</PP_NONLOCAL>
<PP_PSWFC>
<PP_CHI.1 index="1" label="2S" l="0" occupation="2.000000000000e0" n="0" pseudo_energy="0.000000000000e0" cutoff_radius="1.400000000000e0" ultrasoft_cutoff_radius="1.600000000000e0">
2.597934449219999e-4 2.630612440830000e-4 2.663701470950000e-4 2.697206709790000e-4
2.731133392620000e-4 2.765486820530000e-4 2.800272361340000e-4 2.835495450340000e-4
2.871161591210000e-4 2.907276356860000e-4 2.943845390290000e-4 2.980874405480000e-4
3.018369188299999e-4 3.056335597370000e-4 3.094779565010000e-4 3.133707098179999e-4
3.173124279380001e-4 3.213037267620000e-4 3.253452299380000e-4 3.294375689590000e-4
3.335813832610000e-4 3.377773203220000e-4 3.420260357670000e-4 3.463281934660000e-4
3.506844656379999e-4 3.550955329600000e-4 3.595620846690000e-4 3.640848186730000e-4
3.686644416590000e-4 3.733016692000000e-4 3.779972258720000e-4 3.827518453650000e-4
3.875662705990001e-4 3.924412538350000e-4 3.973775567990001e-4 4.023759507980000e-4
4.074372168410000e-4 4.125621457599999e-4 4.177515383350000e-4 4.230062054180000e-4
4.283269680620000e-4 4.337146576449999e-4 4.391701160030000e-4 4.446941955640000e-4
4.502877594730000e-4 4.559516817369999e-4 4.616868473540000e-4 4.674941524529999e-4
4.733745044380000e-4 4.793288221250000e-4 4.853580358850000e-4 4.914630877960000e-4
4.976449317820000e-4 5.039045337690000e-4 5.102428718300000e-4 5.166609363430000e-4
5.231597301410000e-4 5.297402686740000e-4 5.364035801620000e-4 5.431507057590000e-4
5.499826997170000e-4 5.569006295459999e-4 5.639055761860000e-4 5.709986341720001e-4
5.781809118060000e-4 5.854535313330000e-4 5.928176291120000e-4 6.002743557960000e-4
6.078248765110001e-4 6.154703710410000e-4 6.232120340060000e-4 6.310510750550000e-4
6.389887190520000e-4 6.470262062670001e-4 6.551647925699999e-4 6.634057496310000e-4
6.717503651120000e-4 6.801999428740001e-4 6.887558031770000e-4 6.974192828890001e-4
7.061917356920000e-4 7.150745322969999e-4 7.240690606550000e-4 7.331767261760000e-4
7.423989519480001e-4 7.517371789569999e-4 7.611928663169999e-4 7.707674914939999e-4
7.804625505370000e-4 7.902795583150000e-4 8.002200487510001e-4 8.102855750620000e-4
8.204777099999999e-4 8.307980461030001e-4 8.412481959390000e-4 8.518297923579999e-4
8.625444887510000e-4 8.733939593050000e-4 8.843798992640000e-4 8.955040251980002e-4
9.067680752669999e-4 9.181738094940000e-4 9.297230100410001e-4 9.414174814859999e-4
9.532590511060000e-4 9.652495691610000e-4 9.773909091870001e-4 9.896849682819999e-4
1.002133667410000e-3 1.014738951690000e-3 1.027502790720000e-3 1.040427178870000e-3
1.053514135580000e-3 1.066765705700000e-3 1.080183959820000e-3 1.093770994540000e-3
1.107528932850000e-3 1.121459924450000e-3 1.135566146070000e-3 1.149849801830000e-3
1.164313123550000e-3 1.178958371140000e-3 1.193787832940000e-3 1.208803826070000e-3
1.224008696790000e-3 1.239404820860000e-3 1.254994603960000e-3 1.270780481990000e-3
1.286764921510000e-3 1.302950420100000e-3 1.319339506750000e-3 1.335934742280000e-3
1.352738719690000e-3 1.369754064620000e-3 1.386983435730000e-3 1.404429525110000e-3
1.422095058730000e-3 1.439982796830000e-3 1.458095534370000e-3 1.476436101480000e-3
1.495007363890000e-3 1.513812223340000e-3 1.532853618110000e-3 1.552134523430000e-3
1.571657951920000e-3 1.591426954130000e-3 1.611444618970000e-3 1.631714074200000e-3
1.652238486920000e-3 1.673021064060000e-3 1.694065052900000e-3 1.715373741560000e-3
1.736950459510000e-3 1.758798578120000e-3 1.780921511130000e-3 1.803322715250000e-3
1.826005690650000e-3 1.848973981540000e-3 1.872231176690000e-3 1.895780910020000e-3
1.919626861170000e-3 1.943772756040000e-3 1.968222367410000e-3 1.992979515490000e-3
2.018048068580000e-3 2.043431943590000e-3 2.069135106730000e-3 2.095161574090000e-3
2.121515412260000e-3 2.148200738990000e-3 2.175221723810000e-3 2.202582588720000e-3
2.230287608800000e-3 2.258341112910000e-3 2.286747484340000e-3 2.315511161540000e-3
2.344636638770000e-3 2.374128466810000e-3 2.403991253700000e-3 2.434229665420000e-3
2.464848426630000e-3 2.495852321450000e-3 2.527246194130000e-3 2.559034949880000e-3
2.591223555590000e-3 2.623817040630000e-3 2.656820497610000e-3 2.690239083210000e-3
2.724078018960000e-3 2.758342592060000e-3 2.793038156230000e-3 2.828170132500000e-3
2.863744010080000e-3 2.899765347250000e-3 2.936239772160000e-3 2.973172983780000e-3
3.010570752740000e-3 3.048438922240000e-3 3.086783409000000e-3 3.125610204110000e-3
3.164925374060000e-3 3.204735061610000e-3 3.245045486770000e-3 3.285862947810000e-3
3.327193822170000e-3 3.369044567550000e-3 3.411421722820001e-3 3.454331909110000e-3
3.497781830840000e-3 3.541778276700000e-3 3.586328120810000e-3 3.631438323710000e-3
3.677115933510000e-3 3.723368086920000e-3 3.770202010440000e-3 3.817625021450000e-3
3.865644529330000e-3 3.914268036660000e-3 3.963503140390000e-3 4.013357532990000e-3
4.063839003670000e-3 4.114955439610001e-3 4.166714827180000e-3 4.219125253180001e-3
4.272194906099999e-3 4.325932077430000e-3 4.380345162909999e-3 4.435442663880000e-3
4.491233188580001e-3 4.547725453510000e-3 4.604928284770000e-3 4.662850619479999e-3
4.721501507110000e-3 4.780890110960001e-3 4.841025709550000e-3 4.901917698079999e-3
4.963575589890000e-3 5.026009017960000e-3 5.089227736400000e-3 5.153241621960001e-3
5.218060675599999e-3 5.283695024060000e-3 5.350154921370000e-3 5.417450750540000e-3
5.485593025120000e-3 5.554592390860000e-3 5.624459627379999e-3 5.695205649829999e-3
5.766841510620000e-3 5.839378401110000e-3 5.912827653390000e-3 5.987200742040000e-3
6.062509285899999e-3 6.138765049899999e-3 6.215979946890000e-3 6.294166039509999e-3
6.373335542050000e-3 6.453500822380000e-3 6.534674403850000e-3 6.616868967260001e-3
6.700097352860000e-3 6.784372562290000e-3 6.869707760670001e-3 6.956116278640000e-3
7.043611614390000e-3 7.132207435840000e-3 7.221917582700000e-3 7.312756068690001e-3
7.404737083680001e-3 7.497874995900000e-3 7.592184354220000e-3 7.687679890389999e-3
7.784376521330000e-3 7.882289351470000e-3 7.981433675090001e-3 8.081824978710001e-3
8.183478943519999e-3 8.286411447790000e-3 8.390638569350001e-3 8.496176588130000e-3
8.603041988659999e-3 8.711251462629999e-3 8.820821911529999e-3 8.931770449230001e-3
9.044114404710001e-3 9.157871324680000e-3 9.273058976390001e-3 9.389695350320000e-3
9.507798663050000e-3 9.627387360040000e-3 9.748480118530001e-3 9.871095850450001e-3
9.995253705340001e-3 1.012097307330000e-2 1.024827358820000e-2 1.037717513030000e-2
1.050769783000000e-2 1.063986207010000e-2 1.077368849000000e-2 1.090919798800000e-2
1.104641172500000e-2 1.118535112780000e-2 1.132603789220000e-2 1.146849398660000e-2
1.161274165530000e-2 1.175880342190000e-2 1.190670209300000e-2 1.205646076150000e-2
1.220810281040000e-2 1.236165191610000e-2 1.251713205270000e-2 1.267456749490000e-2
1.283398282250000e-2 1.299540292370000e-2 1.315885299930000e-2 1.332435856630000e-2
1.349194546220000e-2 1.366163984870000e-2 1.383346821600000e-2 1.400745738660000e-2
1.418363451990000e-2 1.436202711590000e-2 1.454266301990000e-2 1.472557042640000e-2
1.491077788380000e-2 1.509831429880000e-2 1.528820894050000e-2 1.548049144550000e-2
1.567519182190000e-2 1.587234045440000e-2 1.607196810860000e-2 1.627410593620000e-2
1.647878547950000e-2 1.668603867610000e-2 1.689589786440000e-2 1.710839578800000e-2
1.732356560130000e-2 1.754144087390000e-2 1.776205559650000e-2 1.798544418570000e-2
1.821164148960000e-2 1.844068279270000e-2 1.867260382190000e-2 1.890744075150000e-2
1.914523020910000e-2 1.938600928110000e-2 1.962981551830000e-2 1.987668694210000e-2
2.012666204950000e-2 2.037977982000000e-2 2.063607972080000e-2 2.089560171330000e-2
2.115838625900000e-2 2.142447432580000e-2 2.169390739410000e-2 2.196672746360000e-2
2.224297705920000e-2 2.252269923750000e-2 2.280593759410000e-2 2.309273626920000e-2
2.338313995530000e-2 2.367719390320000e-2 2.397494392970000e-2 2.427643642380000e-2
2.458171835420000e-2 2.489083727650000e-2 2.520384134020000e-2 2.552077929590000e-2
2.584170050330000e-2 2.616665493790000e-2 2.649569319910000e-2 2.682886651770000e-2
2.716622676370000e-2 2.750782645390000e-2 2.785371876040000e-2 2.820395751780000e-2
2.855859723200000e-2 2.891769308820000e-2 2.928130095910000e-2 2.964947741340000e-2
3.002227972420000e-2 3.039976587760000e-2 3.078199458170000e-2 3.116902527480000e-2
3.156091813490000e-2 3.195773408830000e-2 3.235953481850000e-2 3.276638277620000e-2
3.317834118770000e-2 3.359547406470000e-2 3.401784621390000e-2 3.444552324650000e-2
3.487857158750000e-2 3.531705848640000e-2 3.576105202630000e-2 3.621062113440000e-2
3.666583559180000e-2 3.712676604420000e-2 3.759348401180000e-2 3.806606190010000e-2
3.854457301040000e-2 3.902909155020000e-2 3.951969264450000e-2 4.001645234650001e-2
4.051944764840000e-2 4.102875649300000e-2 4.154445778460000e-2 4.206663140050000e-2
4.259535820260000e-2 4.313072004880000e-2 4.367279980500000e-2 4.422168135670001e-2
4.477744962100000e-2 4.534019055880000e-2 4.590999118690000e-2 4.648693959050000e-2
4.707112493530000e-2 4.766263748020000e-2 4.826156859020000e-2 4.886801074879999e-2
4.948205757130000e-2 5.010380381739999e-2 5.073334540480000e-2 5.137077942200000e-2
5.201620414200000e-2 5.266971903580000e-2 5.333142478579999e-2 5.400142329950000e-2
5.467981772380000e-2 5.536671245830000e-2 5.606221316999999e-2 5.676642680690001e-2
5.747946161270000e-2 5.820142714110000e-2 5.893243427020000e-2 5.967259521740001e-2
6.042202355360001e-2 6.118083421860000e-2 6.194914353580000e-2 6.272706922710000e-2
6.351473042819999e-2 6.431224770389999e-2 6.511974306320000e-2 6.593733997490001e-2
6.676516338299999e-2 6.760333972240000e-2 6.845199693430000e-2 6.931126448240001e-2
7.018127336850000e-2 7.106215614820000e-2 7.195404694730000e-2 7.285708147739999e-2
7.377139705259999e-2 7.469713260480000e-2 7.563442870080000e-2 7.658342755790000e-2
7.754427306050000e-2 7.851711077659999e-2 7.950208797369999e-2 8.049935363549999e-2
8.150905847830002e-2 8.253135496720001e-2 8.356639733290001e-2 8.461434158779999e-2
8.567534554240000e-2 8.674956882180000e-2 8.783717288200000e-2 8.893832102639999e-2
9.005317842149999e-2 9.118191211380001e-2 9.232469104540000e-2 9.348168607029999e-2
9.465306997050000e-2 9.583901747119999e-2 9.703970525740001e-2 9.825531198900000e-2
9.948601831600000e-2 1.007320068950000e-1 1.019934624010000e-1 1.032705715490000e-1
1.045635231010000e-1 1.058725078840000e-1 1.071977188070000e-1 1.085393508690000e-1
1.098976011790000e-1 1.112726689630000e-1 1.126647555830000e-1 1.140740645460000e-1
1.155008015180000e-1 1.169451743350000e-1 1.184073930150000e-1 1.198876697700000e-1
1.213862190140000e-1 1.229032573760000e-1 1.244390037080000e-1 1.259936790960000e-1
1.275675068640000e-1 1.291607125870000e-1 1.307735240950000e-1 1.324061714800000e-1
1.340588871030000e-1 1.357319055960000e-1 1.374254638690000e-1 1.391398011130000e-1
1.408751588010000e-1 1.426317806880000e-1 1.444099128150000e-1 1.462098035070000e-1
1.480317033700000e-1 1.498758652890000e-1 1.517425444220000e-1 1.536319981980000e-1
1.555444863090000e-1 1.574802707000000e-1 1.594396155610000e-1 1.614227873160000e-1
1.634300546090000e-1 1.654616882900000e-1 1.675179614020000e-1 1.695991491560000e-1
1.717055289200000e-1 1.738373801900000e-1 1.759949845680000e-1 1.781786257370000e-1
1.803885894350000e-1 1.826251634160000e-1 1.848886374280000e-1 1.871793031680000e-1
1.894974542470000e-1 1.918433861500000e-1 1.942173961920000e-1 1.966197834680000e-1
1.990508488050000e-1 2.015108947070000e-1 2.040002253020000e-1 2.065191462760000e-1
2.090679648110000e-1 2.116469895200000e-1 2.142565303720000e-1 2.168968986150000e-1
2.195684066970000e-1 2.222713681840000e-1 2.250060976650000e-1 2.277729106620000e-1
2.305721235270000e-1 2.334040533410000e-1 2.362690178020000e-1 2.391673351120000e-1
2.420993238500000e-1 2.450653028500000e-1 2.480655910650000e-1 2.511005074290000e-1
2.541703707070000e-1 2.572754993410000e-1 2.604162112930000e-1 2.635928238730000e-1
2.668056535640000e-1 2.700550158340000e-1 2.733412249510000e-1 2.766645937730000e-1
2.800254335450000e-1 2.834240536740000e-1 2.868607615010000e-1 2.903358620670000e-1
2.938496578570000e-1 2.974024485440000e-1 3.009945307180000e-1 3.046261976020000e-1
3.082977387620000e-1 3.120094397970000e-1 3.157615820270000e-1 3.195544421540000e-1
3.233882919240000e-1 3.272633977680000e-1 3.311800204270000e-1 3.351384145700000e-1
3.391388283880000e-1 3.431815031810000e-1 3.472666729240000e-1 3.513945638150000e-1
3.555653938130000e-1 3.597793721530000e-1 3.640366988420000e-1 3.683375641460000e-1
3.726821480430000e-1 3.770706196720000e-1 3.815031367510000e-1 3.859798449800000e-1
3.905008774230000e-1 3.950663538620000e-1 3.996763801400000e-1 4.043310474720000e-1
4.090304317360000e-1 4.137745927400000e-1 4.185635734690000e-1 4.233973992960000e-1
4.282760771810000e-1 4.331995948349999e-1 4.381679198630001e-1 4.431809988720000e-1
4.482387565660000e-1 4.533410947940000e-1 4.584878915880000e-1 4.636790001580000e-1
4.689142478650000e-1 4.741934351650000e-1 4.795163345130000e-1 4.848826892490000e-1
4.902922124470000e-1 4.957445857280000e-1 5.012394580510000e-1 5.067764444660000e-1
5.123551248360000e-1 5.179750425270000e-1 5.236357030700000e-1 5.293365727829999e-1
5.350770773680001e-1 5.408566004710000e-1 5.466744822150000e-1 5.525300176970001e-1
5.584224554540000e-1 5.643509959039999e-1 5.703147897460000e-1 5.763129363420000e-1
5.823444820620000e-1 5.884084186070000e-1 5.945036813050000e-1 6.006291473770000e-1
6.067836341870000e-1 6.129658974640000e-1 6.191746295090001e-1 6.254084573770000e-1
6.316659410470001e-1 6.379455715800000e-1 6.442457692550000e-1 6.505648817110000e-1
6.569011820729999e-1 6.632528670799999e-1 6.696180552190000e-1 6.759947848610000e-1
6.823810124100000e-1 6.887746104680001e-1 6.951733660179999e-1 7.015749786340000e-1
7.079770587150001e-1 7.143771257690000e-1 7.207726067250000e-1 7.271608343090000e-1
7.335390454730000e-1 7.399043799000000e-1 7.462538785740001e-1 7.525844824409999e-1
7.588930311650000e-1 7.651762619759999e-1 7.714308086410000e-1 7.776532005520000e-1
7.838398619519999e-1 7.899871113210000e-1 7.960911609120000e-1 8.021481164739999e-1
8.081539771619999e-1 8.141046356410000e-1 8.199958784160000e-1 8.258233863779999e-1
8.315827356180000e-1 8.372693984970001e-1 8.428787450120000e-1 8.484060444680001e-1
8.538464674550001e-1 8.591950881759999e-1 8.644468871080001e-1 8.695967540460000e-1
8.746394915450001e-1 8.795698187779999e-1 8.843823758359999e-1 8.890717284830000e-1
8.936323733630001e-1 8.980587436970000e-1 9.023452154830000e-1 9.064861142210001e-1
9.104757222000000e-1 9.143082863460000e-1 9.179780266329999e-1 9.214791450670001e-1
9.248058352459999e-1 9.279522925400000e-1 9.309127248920001e-1 9.336813642539999e-1
9.362524786210001e-1 9.386203846620001e-1 9.407794609400000e-1 9.427241617360000e-1
9.444490314890000e-1 9.459487197970001e-1 9.472179969380001e-1 9.482517698510000e-1
9.490450985750000e-1 9.495932131390001e-1 9.498915308380001e-1 9.499356737830000e-1
9.497214866269999e-1 9.492450544050000e-1 9.485027204749999e-1 9.474911044250000e-1
9.462071197810001e-1 9.446479913290000e-1 9.428112719820000e-1 9.406948591030000e-1
9.382970100669999e-1 9.356163567959999e-1 9.326519190280001e-1 9.294031162480000e-1
9.258697780680000e-1 9.220521526880001e-1 9.179509130770001e-1 9.135671607290000e-1
9.089024267940001e-1 9.039586701510000e-1 8.987382719230000e-1 8.932440262540000e-1
8.874791271399999e-1 8.814471507930000e-1 8.751520329640000e-1 8.685980410660001e-1
8.617897408839999e-1 8.547319572099999e-1 8.474297278880000e-1 8.398882512649999e-1
8.321128267159999e-1 8.241087875089999e-1 8.158814258380001e-1 8.074359101700001e-1
7.987771943160000e-1 7.899099178130000e-1 7.808382980870000e-1 7.715660142760000e-1
7.620960822130000e-1 7.524307212790000e-1 7.425712135970000e-1 7.325177552380000e-1
7.222693004500000e-1 7.118258063780000e-1 7.011958974200000e-1 6.903906152619999e-1
6.794211409860001e-1 6.682987777719999e-1 6.570349330720000e-1 6.456411000299999e-1
6.341288394499999e-1 6.225097597810000e-1 6.107954977120000e-1 5.989976973220000e-1
5.871279831380000e-1 5.751979546119999e-1 5.632191586000000e-1 5.512030676600000e-1
5.391610591979999e-1 5.271043947170000e-1 5.150441992619999e-1 5.029914411889999e-1
4.909569123640000e-1 4.789512089100000e-1 4.669847126270000e-1 4.550675731930000e-1
4.432096912610000e-1 4.314207025620000e-1 4.197099630969999e-1 4.080865355110000e-1
3.965591767220000e-1 3.851363268510000e-1 3.738260995060000e-1 3.626362734440000e-1
3.515742855990000e-1 3.406472254960000e-1 3.298618310020000e-1 3.192244853810000e-1
3.087412155880000e-1 2.984176917440000e-1 2.882592276890000e-1 2.782707825430000e-1
2.684569631480000e-1 2.588220273040000e-1 2.493698876870000e-1 2.401041163220000e-1
2.310279495270000e-1 2.221442932100000e-1 2.134557284200000e-1 2.049645170820000e-1
1.966726078210000e-1 1.885816418270000e-1 1.806929586970000e-1 1.730076022430000e-1
1.655263262180000e-1 1.582495999820000e-1 1.511776140970000e-1 1.443102858910000e-1
1.376472650080000e-1 1.311879390030000e-1 1.249314390210000e-1 1.188766456190000e-1
1.130221947840000e-1 1.073664842180000e-1 1.019076799200000e-1 9.664372314030000e-2
9.157233772829999e-2 8.669103792710001e-2 8.199713662700001e-2 7.748775410029999e-2
7.315982722250000e-2 6.901011917290000e-2 6.503522960039999e-2 6.123160522880000e-2
5.759555086920000e-2 5.412324079449999e-2 5.081073043070000e-2 4.765396830690000e-2
4.464880820779999e-2 4.179102146350000e-2 3.907630931440000e-2 3.650031528370000e-2
3.405863749280000e-2 3.174684085520000e-2 2.956046908520000e-2 2.749505646290000e-2
2.554613929700000e-2 2.370926703330000e-2 2.198001296090000e-2 2.035398446960000e-2
1.882683282150000e-2 1.739426240100000e-2 1.605203941370000e-2 1.479600001090000e-2
1.362205781870000e-2 1.252621085840000e-2 1.150454784830000e-2 1.055325388100000e-2
9.668615475759999e-3 8.847025009850002e-3 8.084984534509999e-3 7.379108987530001e-3
6.726128815779999e-3 6.122892024720000e-3 5.566365674590000e-3 5.053636845280000e-3
4.581913093859999e-3 4.148522430870000e-3 3.750912842460000e-3 3.386651387240000e-3
3.053422897100000e-3 2.749028312290000e-3 2.471382681390000e-3 2.218512856770000e-3
1.988554916360000e-3 1.779751342180000e-3 1.590447985500000e-3 1.419090848040000e-3
1.264222707710000e-3 1.124479616520000e-3 9.985872970380003e-4 8.853574628120001e-4
7.836840867040000e-4 6.925396397490001e-4 6.109713217630000e-4 5.380973033670000e-4
4.731029976180000e-4 4.152373778540000e-4 3.638093568420000e-4 3.181842407400000e-4
2.777802698880000e-4 2.420652568660000e-4 2.105533309280000e-4 1.828017963830000e-4
1.584081111800000e-4 1.370069906250000e-4 1.182676400290000e-4 1.018911187900000e-4
8.760783744219999e-5 7.517518812420000e-5 6.437530806870000e-5 5.501297482750001e-5
4.691371265870000e-5 3.992258716390001e-5 3.390088541580000e-5 2.872534323080000e-5
2.428675102030001e-5 2.048857061400000e-5 1.724566061040000e-5 1.448310497280000e-5
1.213513947290000e-5 1.014417052980000e-5 8.459880977950002e-6 7.038417331469998e-6
5.841653182029999e-6 4.836523473190000e-6 3.994424529890000e-6 3.290674882840000e-6
2.704032110579999e-6 2.216261123020000e-6 1.811749524760000e-6 1.477165921340000e-6
1.201157264090000e-6 9.740815648919998e-7 7.877725496779999e-7 6.353330557330001e-7
5.109542103880001e-7 4.097576563320001e-7 3.276583092649999e-7 2.612453460370000e-7
2.076793244190000e-7 1.646035286080000e-7 1.300678167290000e-7 1.024634175800000e-7
8.046728348189999e-8 6.299475431419999e-8 4.915942458269999e-8 3.823923112750000e-8
2.964789393000000e-8 2.291094698350000e-8 1.764569075090000e-8 1.354448290840000e-8
1.036086041970000e-8 7.898054101390001e-9 5.999517324850000e-9 4.541143966000000e-9
3.424897747869999e-9 2.573616316970000e-9 1.926789304380000e-9 1.437140784910000e-9
1.067873466630000e-9 7.904550896390000e-10 5.828473260010001e-10 4.280943552469999e-10
3.132026098700000e-10 2.282552781090000e-10 1.657153182070000e-10 1.198792504380000e-10
8.645109237940002e-11 6.221170506960000e-11 4.476371526699999e-11 3.207017885890000e-11
2.287569258060000e-11 1.624504096180000e-11 1.148462545400000e-11 8.082352724250001e-12
5.661856584299998e-12 3.947797621849999e-12 2.739683435660000e-12 1.892211104810000e-12
1.300577927950000e-12 8.895581074869998e-13 6.054198328189998e-13 4.099739248210000e-13
2.762139750430000e-13 1.851386471360000e-13 1.234475300140000e-13 8.187910861010000e-14
5.401822781880000e-14 3.544499038870001e-14 2.313061129239999e-14 1.501091322390000e-14
9.686893783330000e-15 6.215680200410000e-15 3.965412589780001e-15 2.515082291020000e-15
1.585799306420000e-15 9.939033624189998e-16 6.191662961620002e-16 3.833580222700000e-16
2.358861139240001e-16 1.442337241820000e-16 8.763215739800001e-17 5.290023788220001e-17
3.172589874930001e-17 1.890152040320000e-17 1.118587344980000e-17 6.575016183119999e-18
3.838313626050001e-18 2.225170407419999e-18 1.280935572790000e-18 7.321398057079996e-19
4.154555067840001e-19 2.340342083690000e-19 1.308635041410000e-19 7.262759875630000e-20
4.000256233480001e-20 2.186429371360000e-20 1.185775909430000e-20 6.380383793940002e-21
3.405845489449999e-21 1.803405726520000e-21 9.471268944190001e-22 4.933151098400002e-22
2.547985375829999e-22 1.304907957700000e-22 6.625625089420000e-23 3.334961894239999e-23
1.663889012200000e-23 8.227712582809998e-24 4.031868563070001e-24 1.957747671800000e-24
9.418465315769996e-25 4.488755976100000e-25 2.119058714430000e-25 9.907844747969998e-26
4.587562763080002e-26 2.103285473620001e-26 9.547153094740002e-27 4.289971606569999e-27
1.908027079560000e-27 8.398626330619997e-28 3.658212355899999e-28 1.576554903600000e-28
6.721569688539998e-29 2.834620239260000e-29 1.182284637970000e-29 4.876316186190000e-30
1.988580710950000e-30 8.017044162949999e-31 3.194790441100000e-31 1.258241755619999e-31
4.896831940640000e-32 1.882914751500000e-32 7.152281765700002e-33 2.683430730470001e-33
9.942611222240000e-34 3.637528891570001e-34 0.000000000000000e0 0.000000000000000e0
0.000000000000000e0 0.000000000000000e0 0.000000000000000e0 0.000000000000000e0
0.000000000000000e0 0.000000000000000e0 0.000000000000000e0 0.000000000000000e0
0.000000000000000e0 0.000000000000000e0 0.000000000000000e0 0.000000000000000e0
0.000000000000000e0 0.000000000000000e0 0.000000000000000e0 0.000000000000000e0
0.000000000000000e0 0.000000000000000e0 0.000000000000000e0 0.000000000000000e0
0.000000000000000e0 0.000000000000000e0 0.000000000000000e0 0.000000000000000e0
0.000000000000000e0 0.000000000000000e0 0.000000000000000e0 0.000000000000000e0
0.000000000000000e0 0.000000000000000e0 0.000000000000000e0 0.000000000000000e0
0.000000000000000e0 0.000000000000000e0 0.000000000000000e0 0.000000000000000e0
0.000000000000000e0 0.000000000000000e0 0.000000000000000e0 0.000000000000000e0
0.000000000000000e0 0.000000000000000e0 0.000000000000000e0 0.000000000000000e0
0.000000000000000e0
</PP_CHI.1>
<PP_CHI.2 index="2" label="2P" l="1" occupation="2.000000000000e0" n="0" pseudo_energy="0.000000000000e0" cutoff_radius="1.400000000000e0" ultrasoft_cutoff_radius="1.600000000000e0">
4.642686749249999e-8 4.760216921270000e-8 4.880722383620000e-8 5.004278456140002e-8
5.130962365379999e-8 5.260853292899998e-8 5.394032424740001e-8 5.530583002190001e-8
5.670590373780000e-8 5.814142048669999e-8 5.961327751320001e-8 6.112239477550001e-8
6.266971552110001e-8 6.425620687560002e-8 6.588286044740000e-8 6.755069294799999e-8
6.926074682670001e-8 7.101409092260001e-8 7.281182113260000e-8 7.465506109650001e-8
7.654496289899999e-8 7.848270778990001e-8 8.046950692270000e-8 8.250660211120000e-8
8.459526660600002e-8 8.673680588990001e-8 8.893255849459997e-8 9.118389683639998e-8
9.349222807480000e-8 9.585899499159998e-8 9.828567689280002e-8 1.007737905330000e-7
1.033248910640000e-7 1.059405730060000e-7 1.086224712460000e-7 1.113722620550000e-7
1.141916641430000e-7 1.170824397270000e-7 1.200463956350000e-7 1.230853844360000e-7
1.262013055960000e-7 1.293961066660000e-7 1.326717845010000e-7 1.360303865040000e-7
1.394740119110000e-7 1.430048130990000e-7 1.466249969320000e-7 1.503368261430000e-7
1.541426207440000e-7 1.580447594810000e-7 1.620456813150000e-7 1.661478869520000e-7
1.703539404040000e-7 1.746664705880000e-7 1.790881729760001e-7 1.836218112730000e-7
1.882702191510000e-7 1.930363020140000e-7 1.979230388170000e-7 2.029334839280000e-7
2.080707690370000e-7 2.133381051120001e-7 2.187387844079999e-7 2.242761825240000e-7
2.299537605100000e-7 2.357750670360001e-7 2.417437406060000e-7 2.478635118330001e-7
2.541382057700000e-7 2.605717443020000e-7 2.671681485970001e-7 2.739315416210000e-7
2.808661507090000e-7 2.879763102170000e-7 2.952664642199999e-7 3.027411693000000e-7
3.104050973860000e-7 3.182630386780000e-7 3.263199046420000e-7 3.345807310770000e-7
3.430506812620000e-7 3.517350491880000e-7 3.606392628620001e-7 3.697688877020000e-7
3.791296300150001e-7 3.887273405640000e-7 3.985680182230000e-7 4.086578137289999e-7
4.190030335270000e-7 4.296101437080000e-7 4.404857740530000e-7 4.516367221769999e-7
4.630699577780000e-7 4.747926269890000e-7 4.868120568520000e-7 4.991357598910000e-7
5.117714388120000e-7 5.247269913140000e-7 5.380105150270000e-7 5.516303125740000e-7
5.655948967590001e-7 5.799129958869998e-7 5.945935592230000e-7 6.096457625819999e-7
6.250790140639999e-7 6.409029599389999e-7 6.571274906689998e-7 6.737627470960001e-7
6.908191267790000e-7 7.083072904879999e-7 7.262381688740001e-7 7.446229692990000e-7
7.634731828360000e-7 7.828005914580000e-7 8.026172753990000e-7 8.229356207040000e-7
8.437683269710003e-7 8.651284152890002e-7 8.870292363779999e-7 9.094844789309999e-7
9.325081781680000e-7 9.561147246160001e-7 9.803188730959999e-7 1.005135751950000e-6
1.030580872480000e-6 1.056670138690000e-6 1.083419857160000e-6 1.110846747280000e-6
1.138967951710000e-6 1.167801047060000e-6 1.197364054880000e-6 1.227675452980000e-6
1.258754186880000e-6 1.290619681750000e-6 1.323291854480000e-6 1.356791126170000e-6
1.391138434880000e-6 1.426355248720000e-6 1.462463579240000e-6 1.499485995250000e-6
1.537445636860000e-6 1.576366229980000e-6 1.616272101150000e-6 1.657188192730000e-6
1.699140078480000e-6 1.742153979570000e-6 1.786256780980000e-6 1.831476048240000e-6
1.877840044730000e-6 1.925377749310000e-6 1.974118874440000e-6 2.024093884730000e-6
2.075334016020000e-6 2.127871294880000e-6 2.181738558630000e-6 2.236969475850000e-6
2.293598567460000e-6 2.351661228260000e-6 2.411193749070000e-6 2.472233339400000e-6
2.534818150720000e-6 2.598987300310000e-6 2.664780895690000e-6 2.732240059690000e-6
2.801406956179999e-6 2.872324816370000e-6 2.945037965900000e-6 3.019591852470000e-6
3.096033074310000e-6 3.174409409270000e-6 3.254769844660000e-6 3.337164607940000e-6
3.421645198050000e-6 3.508264417590000e-6 3.597076405880000e-6 3.688136672760000e-6
3.781502133280000e-6 3.877231143290000e-6 3.975383535889999e-6 4.076020658850000e-6
4.179205412940000e-6 4.285002291260000e-6 4.393477419520001e-6 4.504698597390000e-6
4.618735340850001e-6 4.735658925690000e-6 4.855542431990000e-6 4.978460789850001e-6
5.104490826200000e-6 5.233711312790000e-6 5.366203015490000e-6 5.502048744690001e-6
5.641333407110000e-6 5.784144058840001e-6 5.930569959790001e-6 6.080702629390000e-6
6.234635903910001e-6 6.392465994980001e-6 6.554291549809999e-6 6.720213712840001e-6
6.890336188889999e-6 7.064765308020000e-6 7.243610092010000e-6 7.426982322429999e-6
7.614996610560000e-6 7.807770468979999e-6 8.005424385049999e-6 8.208081896170000e-6
8.415869667030000e-6 8.628917568729999e-6 8.847358760000001e-6 9.071329770369998e-6
9.300970585510001e-6 9.536424734740001e-6 9.777839380699998e-6 1.002536541130000e-5
1.027915753420000e-5 1.053937437320000e-5 1.080617856760000e-5 1.107973687370000e-5
1.136022026920000e-5 1.164780405980000e-5 1.194266798900000e-5 1.224499635040000e-5
1.255497810250000e-5 1.287280698740000e-5 1.319868165160000e-5 1.353280576970000e-5
1.387538817260000e-5 1.422664297720000e-5 1.458678972060000e-5 1.495605349720000e-5
1.533466509940000e-5 1.572286116180000e-5 1.612088430900000e-5 1.652898330750000e-5
1.694741322080000e-5 1.737643556900000e-5 1.781631849230001e-5 1.826733691839999e-5
1.872977273420000e-5 1.920391496230000e-5 1.969005994130000e-5 2.018851151140000e-5
2.069958120350000e-5 2.122358843470000e-5 2.176086070750000e-5 2.231173381450000e-5
2.287655204800000e-5 2.345566841580000e-5 2.404944486090000e-5 2.465825248850000e-5
2.528247179740000e-5 2.592249291770000e-5 2.657871585510000e-5 2.725155074010000e-5
2.794141808500000e-5 2.864874904620000e-5 2.937398569370000e-5 3.011758128739999e-5
3.088000056030000e-5 3.166172000870000e-5 3.246322819020000e-5 3.328502602870000e-5
3.412762712760000e-5 3.499155809060000e-5 3.587735885069999e-5 3.678558300760000e-5
3.771679817340001e-5 3.867158632750000e-5 3.965054418020000e-5 4.065428354530000e-5
4.168343172229999e-5 4.273863188860000e-5 4.382054350110000e-5 4.492984270819999e-5
4.606722277250000e-5 4.723339450330000e-5 4.842908670130000e-5 4.965504661340000e-5
5.091204039979999e-5 5.220085361240001e-5 5.352229168599999e-5 5.487718044050000e-5
5.626636659780000e-5 5.769071831009999e-5 5.915112570209999e-5 6.064850142770000e-5
6.218378123910000e-5 6.375792457210000e-5 6.537191514490002e-5 6.702676157280001e-5
6.872349799789999e-5 7.046318473520000e-5 7.224690893489999e-5 7.407578526089999e-5
7.595095658759999e-5 7.787359471329999e-5 7.984490109180000e-5 8.186610758320001e-5
8.393847722289999e-5 8.606330501020000e-5 8.824191871720000e-5 9.047567971780001e-5
9.276598383800000e-5 9.511426222679999e-5 9.752198225090002e-5 9.999064840970002e-5
1.025218032760000e-4 1.051170284570000e-4 1.077779455840000e-4 1.105062173240000e-4
1.133035484170000e-4 1.161716867410000e-4 1.191124244030000e-4 1.221275988580000e-4
1.252190940540000e-4 1.283888416120000e-4 1.316388220250000e-4 1.349710659040000e-4
1.383876552340000e-4 1.418907246830000e-4 1.454824629280000e-4 1.491651140240000e-4
1.529409788040000e-4 1.568124163120000e-4 1.607818452800000e-4 1.648517456310000e-4
1.690246600340000e-4 1.733031954820000e-4 1.776900249240000e-4 1.821878889300000e-4
1.867995974040000e-4 1.915280313320000e-4 1.963761445820000e-4 2.013469657450000e-4
2.064436000250000e-4 2.116692311750000e-4 2.170271234830000e-4 2.225206238060000e-4
2.281531636590000e-4 2.339282613520000e-4 2.398495241880000e-4 2.459206507040000e-4
2.521454329870000e-4 2.585277590280000e-4 2.650716151510000e-4 2.717810884980000e-4
2.786603695700000e-4 2.857137548470000e-4 2.929456494579999e-4 3.003605699290000e-4
3.079631469980000e-4 3.157581284970000e-4 3.237503823090000e-4 3.319448994040000e-4
3.403467969440000e-4 3.489613214710000e-4 3.577938521740001e-4 3.668499042370000e-4
3.761351322750000e-4 3.856553338510000e-4 3.954164530870000e-4 4.054245843620000e-4
4.156859761070001e-4 4.262070346900000e-4 4.369943284030001e-4 4.480545915490000e-4
4.593947286310001e-4 4.710218186429999e-4 4.829431194770001e-4 4.951660724320000e-4
5.076983068429999e-4 5.205476448230001e-4 5.337221061210000e-4 5.472299131120000e-4
5.610794959030000e-4 5.752794975690000e-4 5.898387795230001e-4 6.047664270220000e-4
6.200717548029999e-4 6.357643128730000e-4 6.518538924310000e-4 6.683505319509999e-4
6.852645234050001e-4 7.026064186530000e-4 7.203870359870001e-4 7.386174668419999e-4
7.573090826680000e-4 7.764735419880000e-4 7.961227976160000e-4 8.162691040710000e-4
8.369250251630000e-4 8.581034417790001e-4 8.798175598600000e-4 9.020809185739999e-4
9.249073986990000e-4 9.483112312119999e-4 9.723070060929999e-4 9.969096813469999e-4
1.022134592260000e-3 1.047997460860000e-3 1.074514405660000e-3 1.101701951610000e-3
1.129577040270000e-3 1.158157040310000e-3 1.187459758230000e-3 1.217503449300000e-3
1.248306828900000e-3 1.279889083970000e-3 1.312269884920000e-3 1.345469397700000e-3
1.379508296220000e-3 1.414407775120000e-3 1.450189562770000e-3 1.486875934680000e-3
1.524489727170000e-3 1.563054351430000e-3 1.602593807860000e-3 1.643132700900000e-3
1.684696254050000e-3 1.727310325390000e-3 1.771001423450000e-3 1.815796723420000e-3
1.861724083850000e-3 1.908812063700000e-3 1.957089939800000e-3 2.006587724800000e-3
2.057336185480000e-3 2.109366861600000e-3 2.162712085130000e-3 2.217404999990000e-3
2.273479582310000e-3 2.330970661100000e-3 2.389913939470000e-3 2.450346016430000e-3
2.512304409070000e-3 2.575827575470000e-3 2.640954937990000e-3 2.707726907250000e-3
2.776184906650000e-3 2.846371397460000e-3 2.918329904580000e-3 2.992105042840000e-3
3.067742544040000e-3 3.145289284540000e-3 3.224793313580000e-3 3.306303882290000e-3
3.389871473310000e-3 3.475547831290000e-3 3.563385993890000e-3 3.653440323760000e-3
3.745766541140000e-3 3.840421757230001e-3 3.937464508490001e-3 4.036954791590000e-3
4.138954099330000e-3 4.243525457290000e-3 4.350733461500001e-3 4.460644316820000e-3
4.573325876380000e-3 4.688847681880000e-3 4.807281004820001e-3 4.928698888760000e-3
5.053176192510000e-3 5.180789634380000e-3 5.311617837400000e-3 5.445741375670000e-3
5.583242821710001e-3 5.724206794970001e-3 5.868720011409999e-3 6.016871334260000e-3
6.168751825910000e-3 6.324454801050000e-3 6.484075880940000e-3 6.647713048990001e-3
6.815466707550000e-3 6.987439736030000e-3 7.163737550290000e-3 7.344468163430000e-3
7.529742247820000e-3 7.719673198690000e-3 7.914377198960000e-3 8.113973285620000e-3
8.318583417559999e-3 8.528332544849999e-3 8.743348679560000e-3 8.963762968139999e-3
9.189709765349999e-3 9.421326709800002e-3 9.658754801099999e-3 9.902138478660000e-3
1.015162570220000e-2 1.040736803390000e-2 1.066952072240000e-2 1.093824278840000e-2
1.121369711210000e-2 1.149605052250000e-2 1.178547388850000e-2 1.208214221190000e-2
1.238623472210000e-2 1.269793497300000e-2 1.301743094150000e-2 1.334491512840000e-2
1.368058466070000e-2 1.402464139620000e-2 1.437729203050000e-2 1.473874820510000e-2
1.510922661860000e-2 1.548894913910000e-2 1.587814291940000e-2 1.627704051350000e-2
1.668587999620000e-2 1.710490508380000e-2 1.753436525800000e-2 1.797451589100000e-2
1.842561837300000e-2 1.888794024240000e-2 1.936175531750000e-2 1.984734383080000e-2
2.034499256490000e-2 2.085499499110000e-2 2.137765141000000e-2 2.191326909390000e-2
2.246216243190000e-2 2.302465307620000e-2 2.360107009150000e-2 2.419175010550000e-2
2.479703746190000e-2 2.541728437550000e-2 2.605285108850000e-2 2.670410602930000e-2
2.737142597310000e-2 2.805519620350000e-2 2.875581067700000e-2 2.947367218770000e-2
3.020919253470000e-2 3.096279269030000e-2 3.173490296929999e-2 3.252596320049999e-2
3.333642289799999e-2 3.416674143440001e-2 3.501738821440000e-2 3.588884284940000e-2
3.678159533220000e-2 3.769614621210000e-2 3.863300677070000e-2 3.959269919700001e-2
4.057575676250000e-2 4.158272399560000e-2 4.261415685580000e-2 4.367062290640000e-2
4.475270148580001e-2 4.586098387820000e-2 4.699607348070000e-2 4.815858597000000e-2
4.934914946530000e-2 5.056840468870000e-2 5.181700512190001e-2 5.309561715959999e-2
5.440492025830000e-2 5.574560708020000e-2 5.711838363240000e-2 5.852396939960000e-2
5.996309747110001e-2 6.143651466030001e-2 6.294498161719999e-2 6.448927293170000e-2
6.607017722929999e-2 6.768849725560000e-2 6.934504995120000e-2 7.104066651540000e-2
7.277619245690000e-2 7.455248763209999e-2 7.637042626910000e-2 7.823089697670000e-2
8.013480273680001e-2 8.208306088080001e-2 8.407660304580000e-2 8.611637511280000e-2
8.820333712329999e-2 9.033846317340000e-2 9.252274128510001e-2 9.475717325140000e-2
9.704277445620001e-2 9.938057366439999e-2 1.017716127840000e-1 1.042169465930000e-1
1.067176424400000e-1 1.092747799010000e-1 1.118894504030000e-1 1.145627568120000e-1
1.172958129690000e-1 1.200897431960000e-1 1.229456817470000e-1 1.258647722090000e-1
1.288481668610000e-1 1.318970259750000e-1 1.350125170550000e-1 1.381958140310000e-1
1.414480963760000e-1 1.447705481720000e-1 1.481643571020000e-1 1.516307133670000e-1
1.551708085430000e-1 1.587858343450000e-1 1.624769813230000e-1 1.662454374650000e-1
1.700923867220000e-1 1.740190074350000e-1 1.780264706660000e-1 1.821159384410000e-1
1.862885618770000e-1 1.905454792140000e-1 1.948878137290000e-1 1.993166715450000e-1
2.038331393090000e-1 2.084382817630000e-1 2.131331391730000e-1 2.179187246430000e-1
2.227960212830000e-1 2.277659792440000e-1 2.328295126080000e-1 2.379874961380000e-1
2.432407618670000e-1 2.485900955400000e-1 2.540362329010000e-1 2.595798558130000e-1
2.652215882140000e-1 2.709619919100000e-1 2.768015621940000e-1 2.827407232940000e-1
2.887798236450000e-1 2.949191309840000e-1 3.011588272710000e-1 3.074990034210000e-1
3.139396538660000e-1 3.204806709360000e-1 3.271218390550000e-1 3.338628287670000e-1
3.407031905830000e-1 3.476423486550000e-1 3.546795942910000e-1 3.618140792910000e-1
3.690448091410000e-1 3.763706360510000e-1 3.837902518530000e-1 3.913021807620000e-1
3.989047720320000e-1 4.065961924860000e-1 4.143744189680000e-1 4.222372307130000e-1
4.301822016590000e-1 4.382066927250000e-1 4.463078440689999e-1 4.544825673610000e-1
4.627275380890000e-1 4.710391879360000e-1 4.794136972520000e-1 4.878469876630000e-1
4.963347148500000e-1 5.048722615490000e-1 5.134547307970000e-1 5.220769394930000e-1
5.307334123170000e-1 5.394183760490000e-1 5.481257543710000e-1 5.568491631920000e-1
5.655819065690000e-1 5.743169732959999e-1 5.830470342330000e-1 5.917644404430000e-1
6.004612222320000e-1 6.091290891600000e-1 6.177594311220000e-1 6.263433205849999e-1
6.348715160679999e-1 6.433344669799999e-1 6.517223198849999e-1 6.600249263280000e-1
6.682318522960000e-1 6.763323894299999e-1 6.843155680990000e-1 6.921701724160000e-1
6.998847573200000e-1 7.074476678129999e-1 7.148470604450000e-1 7.220709271470001e-1
7.291071214910000e-1 7.359433874530001e-1 7.425673907540000e-1 7.489667528360000e-1
7.551290875080000e-1 7.610420403040000e-1 7.666933305560000e-1 7.720707961860001e-1
7.771624411650000e-1 7.819564856100000e-1 7.864414184130000e-1 7.906060522990001e-1
7.944395811520000e-1 7.979316394260000e-1 8.010723634090001e-1 8.038524540570000e-1
8.062632410750000e-1 8.082967478590000e-1 8.099457568640000e-1 8.112038749020000e-1
8.120655977970001e-1 8.125263737670000e-1 8.125826648380000e-1 8.122320054999999e-1
8.114730577610000e-1 8.103056616629999e-1 8.087308802460001e-1 8.067510378870001e-1
8.043697508199999e-1 8.015919486230001e-1 7.984238853380000e-1 7.948731388490000e-1
7.909485970760000e-1 7.866604294960000e-1 7.820200424510000e-1 7.770400166940000e-1
7.717340256080000e-1 7.661167325319999e-1 7.602036656840000e-1 7.540110692150001e-1
7.475557290300000e-1 7.408547721210001e-1 7.339254383440000e-1 7.267848237530000e-1
7.194495948810000e-1 7.119356736459999e-1 7.042578929239999e-1 6.964296232640001e-1
6.884623716779999e-1 6.803653540240000e-1 6.721450430810000e-1 6.638046951470001e-1
6.553438587180000e-1 6.467601925160000e-1 6.380576405060000e-1 6.292421852770000e-1
6.203199224200000e-1 6.112970538219999e-1 6.021798792529999e-1 5.929747883370000e-1
5.836882518450000e-1 5.743268125249999e-1 5.648970754830001e-1 5.554056974360000e-1
5.458593708190000e-1 5.362648250579999e-1 5.266288099330000e-1 5.169580833450000e-1
5.072593995090000e-1 4.975394969560000e-1 4.878050864190000e-1 4.780628386820000e-1
4.683193724720000e-1 4.585812425000000e-1 4.488549277210000e-1 4.391468199260000e-1
4.294632127520000e-1 4.198102911950000e-1 4.101941217190000e-1 4.006206430380000e-1
3.910956576350000e-1 3.816248240750000e-1 3.722136501750000e-1 3.628674870400000e-1
3.535915240030000e-1 3.443907844710000e-1 3.352701226600000e-1 3.262342211990000e-1
3.172875895670000e-1 3.084345633080000e-1 2.996793039550000e-1 2.910257995980000e-1
2.824778659990000e-1 2.740391481680000e-1 2.657131223020000e-1 2.575030979820000e-1
2.494122205230000e-1 2.414434733890000e-1 2.335996805600000e-1 2.258835087770000e-1
2.182974695680000e-1 2.108439210020000e-1 2.035250691000000e-1 1.963429688740000e-1
1.892995249500000e-1 1.823964917810000e-1 1.756354734490000e-1 1.690179230710000e-1
1.625451418500000e-1 1.562182778220000e-1 1.500383243570000e-1 1.440061184810000e-1
1.381223391010000e-1 1.323875052170000e-1 1.268019741940000e-1 1.213659401990000e-1
1.160794328600000e-1 1.109423162460000e-1 1.059542882250000e-1 1.011148802740000e-1
9.642345778590000e-2 9.187922092200001e-2 8.748120604659999e-2 8.322828776400000e-2
7.911918157290000e-2 7.515244714140001e-2 7.132649219639999e-2 6.763957701330002e-2
6.408981948240000e-2 6.067520072379999e-2 5.739357121330000e-2 5.424265738100001e-2
5.122006863570000e-2 4.832330476880000e-2 4.554976368710000e-2 4.289674942250000e-2
4.036148036690000e-2 3.794109768060000e-2 3.563267382080000e-2 3.343322114140000e-2
3.133970051380000e-2 2.934902992270000e-2 2.745809299110000e-2 2.566374739190000e-2
2.396283310790000e-2 2.235218050200000e-2 2.082861816380000e-2 1.938898050260000e-2
1.803011505830000e-2 1.674888950550000e-2 1.554219832990000e-2 1.440696915680000e-2
1.334016871840000e-2 1.233880844410000e-2 1.139994966640000e-2 1.052070843390000e-2
9.698259925950000e-3 8.929842468040000e-3 8.212761147060000e-3 7.544391028569999e-3
6.922179980760000e-3 6.343651110760000e-3 5.806404821699999e-3 5.308120499650000e-3
4.846557841710000e-3 4.419557837640000e-3 4.025043418390000e-3 3.661019786410000e-3
3.325574443080001e-3 3.016876929640000e-3 2.733178298510000e-3 2.472810332560000e-3
2.234184529890000e-3 2.015790872510000e-3 1.816196396780000e-3 1.634043584010000e-3
1.468048589320000e-3 1.316999326560000e-3 1.179753426980000e-3 1.055236088900000e-3
9.424378351610001e-4 8.404121944020000e-4 7.482733220780000e-4 6.651935760120001e-4
5.904010607500000e-4 5.231771540430001e-4 4.628540283880000e-4 4.088121792739999e-4
3.604779711330000e-4 3.173212110849999e-4 2.788527596870000e-4 2.446221869820000e-4
2.142158528980000e-4 1.872576128590000e-4 1.633994092070000e-4 1.423228672830000e-4
1.237377022870000e-4 1.073797532770000e-4 9.300910253440000e-5 8.040828163239999e-5
6.938056497520000e-5 5.974835101450000e-5 5.135163084840000e-5 4.404654343539999e-5
3.770401622150000e-5 3.220848959180000e-5 2.745672320810000e-5 2.335668198490000e-5
1.982649919200000e-5 1.679351394370000e-5 1.419338014640000e-5 1.196924382850000e-5
1.007098565950000e-5 8.454525385260002e-6 7.081184858220001e-6 5.917106320430000e-6
4.932722604619999e-6 4.102275950449999e-6 3.403382186230000e-6 2.816637099280000e-6
2.325261907410000e-6 1.914784848300000e-6 1.572756018910000e-6 1.288492722990000e-6
1.052852717150000e-6 8.580328847120001e-7 6.973910082020001e-7 5.652884548210001e-7
4.569517333120000e-7 3.683510230240000e-7 2.960939162050000e-7 2.373327511990000e-7
1.896840464380000e-7 1.511586721330000e-7 1.201015178930000e-7 9.513952951520000e-8
7.513709664629999e-8 5.915787477450001e-8 4.643221978000000e-8 3.632950125320000e-8
2.833464190960000e-8 2.202830491630000e-8 1.707021898040000e-8 1.318519290970000e-8
1.015142734040000e-8 7.790781780709999e-9 5.960700413130001e-9 4.547540616270000e-9
3.461084335450000e-9 2.630044671879999e-9 1.998408846160000e-9 1.512939283540000e-9
1.141181187280000e-9 8.575578277040002e-10 6.419887849569999e-10 4.787688985470000e-10
3.556623316970000e-10 2.631733992520000e-10 1.939620408360000e-10 1.423771597360000e-10
1.040855987780000e-10 7.577838457690000e-11 5.493912981190001e-11 3.966221995500001e-11
2.851069839310000e-11 2.040566640010000e-11 1.454058896220000e-11 1.031519407220000e-11
7.284715531940002e-12 5.121095467260000e-12 3.583465352980002e-12 2.495791371130001e-12
1.730025200710000e-12 1.193465006700000e-12 8.193203879040000e-13 5.597034942870001e-13
3.804481673470000e-13 2.572994723730001e-13 1.731253133240001e-13 1.158864171580000e-13
7.716608099919999e-14 5.111090838000000e-14 3.367169221920000e-14 2.206231349060000e-14
1.437613464260000e-14 9.315539607790003e-15 6.002306393740001e-15 3.845400989430001e-15
2.449328961110000e-15 1.550968226650000e-15 9.762855769780003e-16 6.108527336230001e-16
3.798821822060000e-16 2.347906213100000e-16 1.442109475140000e-16 8.801712963289997e-17
5.337686353840001e-17 3.216034770240000e-17 1.925017902250001e-17 1.144614474480000e-17
6.760171873680001e-18 3.965458852999999e-18 2.310090868280001e-18 1.336370300120000e-18
7.676238495770001e-19 4.377793498359999e-19 2.478609108440000e-19 1.393051152030000e-19
7.771272474030003e-20 4.302714705320000e-20 2.364161209950000e-20 1.289003236990000e-20
6.973182797109999e-21 3.742531116500001e-21 1.992570909989999e-21 1.052282313690000e-21
5.511584219880000e-22 2.862868040320000e-22 1.474556323560000e-22 7.530267955869999e-23
3.812429480579997e-23 1.913322774280000e-23 9.517476422330001e-24 4.691957149429999e-24
2.292111953100000e-24 1.109474848100000e-24 5.320452900499998e-25 2.527425008540000e-25
1.189199927730001e-25 5.541484559040000e-26 2.557049402630000e-26 1.168262033510000e-26
5.284152001160000e-27 2.365861374670001e-27 1.048399023890000e-27 4.597597124400000e-28
1.995010419420000e-28 8.564689413740002e-29 3.637238508779999e-29 1.527799754459999e-29
6.346519546209997e-30 2.606865483710001e-30 1.058653786560000e-30 4.249906435000001e-31
1.686288298850000e-31 6.612223112619998e-32 2.561897535720000e-32 9.806389798480000e-33
3.707860795270000e-33 1.384641875870000e-33 5.106029630120003e-34 0.000000000000000e0
0.000000000000000e0 0.000000000000000e0 0.000000000000000e0 0.000000000000000e0
0.000000000000000e0 0.000000000000000e0 0.000000000000000e0 0.000000000000000e0
0.000000000000000e0 0.000000000000000e0 0.000000000000000e0 0.000000000000000e0
0.000000000000000e0 0.000000000000000e0 0.000000000000000e0 0.000000000000000e0
0.000000000000000e0 0.000000000000000e0 0.000000000000000e0 0.000000000000000e0
0.000000000000000e0 0.000000000000000e0 0.000000000000000e0 0.000000000000000e0
0.000000000000000e0 0.000000000000000e0 0.000000000000000e0 0.000000000000000e0
0.000000000000000e0 0.000000000000000e0 0.000000000000000e0 0.000000000000000e0
0.000000000000000e0
</PP_CHI.2>
</PP_PSWFC>
<PP_RHOATOM>
1.888901766020000e-8 1.936719594410000e-8 1.985747939600000e-8 2.036017446080000e-8
2.087559534150000e-8 2.140406419520000e-8 2.194591133450000e-8 2.250147543410000e-8
2.307110374220000e-8 2.365515229780000e-8 2.425398615310000e-8 2.486797960190000e-8
2.549751641320000e-8 2.614299007150000e-8 2.680480402230000e-8 2.748337192470000e-8
2.817911790950001e-8 2.889247684480000e-8 2.962389460740001e-8 3.037382836190000e-8
3.114274684600000e-8 3.193113066389999e-8 3.273947258630000e-8 3.356827785889999e-8
3.441806451780000e-8 3.528936371350000e-8 3.618272004270000e-8 3.709869188910000e-8
3.803785177189999e-8 3.900078670440000e-8 3.998809855990000e-8 4.100040444879999e-8
4.203833710410000e-8 4.310254527649999e-8 4.419369414040000e-8 4.531246570960000e-8
4.645955926339998e-8 4.763569178369998e-8 4.884159840350001e-8 5.007803286600000e-8
5.134576799600000e-8 5.264559618290000e-8 5.397832987599999e-8 5.534480209250001e-8
5.674586693769999e-8 5.818240013959999e-8 5.965529959570000e-8 6.116548593470000e-8
6.271390309140000e-8 6.430151889750001e-8 6.592932568600002e-8 6.759834091160000e-8
6.930960778700000e-8 7.106419593449998e-8 7.286320205510000e-8 7.470775061369999e-8
7.659899454210001e-8 7.853811595979998e-8 8.052632691290000e-8 8.256487013150000e-8
8.465501980690000e-8 8.679808238780000e-8 8.899539739720000e-8 9.124833826969997e-8
9.355831320970001e-8 9.592676607230000e-8 9.835517726539999e-8 1.008450646750000e-7
1.033979846150000e-7 1.060155327980000e-7 1.086993453370000e-7 1.114510997610000e-7
1.142725160730000e-7 1.171653578160000e-7 1.201314331820000e-7 1.231725961400000e-7
1.262907475940000e-7 1.294878365740000e-7 1.327658614500000e-7 1.361268711860000e-7
1.395729666200000e-7 1.431063017740000e-7 1.467290852040000e-7 1.504435813790000e-7
1.542521120970000e-7 1.581570579380000e-7 1.621608597500001e-7 1.662660201760000e-7
1.704751052170000e-7 1.747907458410000e-7 1.792156396200000e-7 1.837525524260000e-7
1.884043201500000e-7 1.931738504840000e-7 1.980641247330000e-7 2.030781996800000e-7
2.082192095010000e-7 2.134903677180000e-7 2.188949692130000e-7 2.244363922870000e-7
2.301181007709999e-7 2.359436461920000e-7 2.419166699960000e-7 2.480409058190000e-7
2.543201818279999e-7 2.607584231100000e-7 2.673596541280000e-7 2.741280012390001e-7
2.810676952680000e-7 2.881830741600000e-7 2.954785856900000e-7 3.029587902420000e-7
3.106283636650001e-7 3.184921001920000e-7 3.265549154409999e-7 3.348218494860000e-7
3.432980700130001e-7 3.519888755470000e-7 3.608996987670000e-7 3.700361099020000e-7
3.794038202190000e-7 3.890086855880000e-7 3.988567101470000e-7 4.089540500570000e-7
4.193070173540001e-7 4.299220838890000e-7 4.408058853850000e-7 4.519652255800000e-7
4.634070804849999e-7 4.751386027440000e-7 4.871671261140000e-7 4.995001700440000e-7
5.121454443829999e-7 5.251108541990000e-7 5.384045047260000e-7 5.520347064319999e-7
5.660099802190000e-7 5.803390627500001e-7 5.950309119140000e-7 6.100947124330000e-7
6.255398816040001e-7 6.413760751900000e-7 6.576131934619999e-7 6.742613873909999e-7
6.913310649990000e-7 7.088328978699999e-7 7.267778278250001e-7 7.451770737710000e-7
7.640421387160000e-7 7.833848169680002e-7 8.032172015150000e-7 8.235516915900000e-7
8.444010004290002e-7 8.657781632290002e-7 8.876965453009998e-7 9.101698504349999e-7
9.332121294770001e-7 9.568377891190000e-7 9.810616009170001e-7 1.005898710540000e-6
1.031364647230000e-6 1.057475333550000e-6 1.084247095330000e-6 1.111696671890000e-6
1.139841226520000e-6 1.168698357230000e-6 1.198286107740000e-6 1.228622978820000e-6
1.259727939820000e-6 1.291620440590000e-6 1.324320423640000e-6 1.357848336620000e-6
1.392225145130000e-6 1.427472345850000e-6 1.463611980000000e-6 1.500666647150000e-6
1.538659519329999e-6 1.577614355630000e-6 1.617555516980000e-6 1.658507981490000e-6
1.700497360060000e-6 1.743549912410000e-6 1.787692563550000e-6 1.832952920660000e-6
1.879359290370000e-6 1.926940696480000e-6 1.975726898180000e-6 2.025748408700000e-6
2.077036514380000e-6 2.129623294340000e-6 2.183541640560000e-6 2.238825278480000e-6
2.295508788190000e-6 2.353627626050001e-6 2.413218146950000e-6 2.474317627130000e-6
2.536964287510001e-6 2.601197317660000e-6 2.667056900420000e-6 2.734584237070000e-6
2.803821573170000e-6 2.874812225090000e-6 2.947600607160000e-6 3.022232259560000e-6
3.098753876870000e-6 3.177213337390000e-6 3.257659733200000e-6 3.340143400950000e-6
3.424715953490000e-6 3.511430312220000e-6 3.600340740409999e-6 3.691502877190000e-6
3.784973772529999e-6 3.880811923080000e-6 3.979077308910000e-6 4.079831431190001e-6
4.183137350850000e-6 4.289059728190000e-6 4.397664863550000e-6 4.509020738939999e-6
4.623197060860001e-6 4.740265304050000e-6 4.860298756490000e-6 4.983372565490001e-6
5.109563784950000e-6 5.238951423860001e-6 5.371616496030001e-6 5.507642071039999e-6
5.647113326600000e-6 5.790117602110000e-6 5.936744453719998e-6 6.087085710719999e-6
6.241235533389999e-6 6.399290472320001e-6 6.561349529310000e-6 6.727514219710002e-6
6.897888636509999e-6 7.072579515909999e-6 7.251696304690000e-6 7.435351229290001e-6
7.623659366570001e-6 7.816738716509999e-6 8.014710276700001e-6 8.217698118750000e-6
8.425829466680000e-6 8.639234777319999e-6 8.858047822759998e-6 9.082405774930001e-6
9.312449292349999e-6 9.548322609120000e-6 9.790173626209999e-6 1.003815400500000e-5
1.029241926360000e-5 1.055312887480000e-5 1.082044636780000e-5 1.109453943120000e-5
1.137558001990000e-5 1.166374446400000e-5 1.195921358020000e-5 1.226217278740000e-5
1.257281222380000e-5 1.289132686810000e-5 1.321791666310000e-5 1.355278664300000e-5
1.389614706380000e-5 1.424821353710000e-5 1.460920716720000e-5 1.497935469230000e-5
1.535888862840000e-5 1.574804741830000e-5 1.614707558290000e-5 1.655622387790000e-5
1.697574945330000e-5 1.740591601830000e-5 1.784699400940000e-5 1.829926076350000e-5
1.876300069530000e-5 1.923850547970000e-5 1.972607423810000e-5 2.022601373080000e-5
2.073863855320000e-5 2.126427133800000e-5 2.180324296250000e-5 2.235589276110000e-5
2.292256874360000e-5 2.350362781900000e-5 2.409943602580000e-5 2.471036876750000e-5
2.533681105490000e-5 2.597915775470000e-5 2.663781384460000e-5 2.731319467510000e-5
2.800572623810000e-5 2.871584544310000e-5 2.944400040040001e-5 3.019065071160000e-5
3.095626776810000e-5 3.174133505770000e-5 3.254634847909999e-5 3.337181666479999e-5
3.421826131260000e-5 3.508621752640000e-5 3.597623416530000e-5 3.688887420299999e-5
3.782471509600000e-5 3.878434916220000e-5 3.976838396980000e-5 4.077744273620000e-5
4.181216473800000e-5 4.287320573200000e-5 4.396123838750000e-5 4.507695273090000e-5
4.622105660109999e-5 4.739427611900000e-5 4.859735616800000e-5 4.983106088930000e-5
5.109617418930000e-5 5.239350026210000e-5 5.372386412530000e-5 5.508811217110000e-5
5.648711273260000e-5 5.792175666579999e-5 5.939295794670000e-5 6.090165428659999e-5
6.244880776299999e-5 6.403540546879999e-5 6.566246017919999e-5 6.733101103790000e-5
6.904212426140001e-5 7.079689386390000e-5 7.259644240240000e-5 7.444192174260000e-5
7.633451384640001e-5 7.827543158180000e-5 8.026591955580001e-5 8.230725497069999e-5
8.440074850529999e-5 8.654774522059999e-5 8.874962549199999e-5 9.100780596769999e-5
9.332374055549998e-5 9.569892143679997e-5 9.813488011150000e-5 1.006331884720000e-4
1.031954599080000e-4 1.058233504470000e-4 1.085185599200000e-4 1.112828331750000e-4
1.141179613110000e-4 1.170257829560000e-4 1.200081855880000e-4 1.230671068830000e-4
1.262045361140000e-4 1.294225155820000e-4 1.327231421030000e-4 1.361085685250000e-4
1.395810053000000e-4 1.431427221010000e-4 1.467960494910000e-4 1.505433806340000e-4
1.543871730680000e-4 1.583299505300000e-4 1.623743048320000e-4 1.665228978010000e-4
1.707784632750000e-4 1.751438091650000e-4 1.796218195760000e-4 1.842154570000000e-4
1.889277645730000e-4 1.937618684060000e-4 1.987209799920000e-4 2.038083986810000e-4
2.090275142440000e-4 2.143818095149999e-4 2.198748631120000e-4 2.255103522580000e-4
2.312920556810000e-4 2.372238566180000e-4 2.433097459100000e-4 2.495538252010000e-4
2.559603102470000e-4 2.625335343230000e-4 2.692779517540000e-4 2.761981415580000e-4
2.832988112140000e-4 2.905848005500000e-4 2.980610857710000e-4 3.057327836140000e-4
3.136051556560000e-4 3.216836127550000e-4 3.299737196520000e-4 3.384811997330000e-4
3.472119399470000e-4 3.561719959019999e-4 3.653675971370001e-4 3.748051525740000e-4
3.844912561700000e-4 3.944326927569999e-4 4.046364441040000e-4 4.151096951740000e-4
4.258598406300001e-4 4.368944915490000e-4 4.482214823970000e-4 4.598488782450000e-4
4.717849822539999e-4 4.840383434280000e-4 4.966177646520000e-4 5.095323110300000e-4
5.227913185240000e-4 5.364044029190000e-4 5.503814691170000e-4 5.647327207850000e-4
5.794686703570000e-4 5.946001494190000e-4 6.101383194819999e-4 6.260946831730001e-4
6.424810958400000e-4 6.593097776110000e-4 6.765933259150001e-4 6.943447284830000e-4
7.125773768509999e-4 7.313050803990000e-4 7.505420809199999e-4 7.703030677770001e-4
7.906031936450000e-4 8.114580908800001e-4 8.328838885309999e-4 8.548972300330000e-4
8.775152916009999e-4 9.007558013680001e-4 9.246370592809999e-4 9.491779578090000e-4
9.743980034810001e-4 1.000317339300000e-3 1.026956768080000e-3 1.054337776710000e-3
1.082482561440000e-3 1.111414054190000e-3 1.141155949960000e-3 1.171732735340000e-3
1.203169718250000e-3 1.235493058870000e-3 1.268729801890000e-3 1.302907910130000e-3
1.338056299480000e-3 1.374204875440000e-3 1.411384571090000e-3 1.449627386740000e-3
1.488966431200000e-3 1.529435964880000e-3 1.571071444630000e-3 1.613909570600000e-3
1.657988335050000e-3 1.703347073220000e-3 1.750026516480000e-3 1.798068847700000e-3
1.847517759040000e-3 1.898418512240000e-3 1.950818001510000e-3 2.004764819180000e-3
2.060309324210000e-3 2.117503713630000e-3 2.176402097190000e-3 2.237060575230000e-3
2.299537319940001e-3 2.363892660280000e-3 2.430189170500000e-3 2.498491762710000e-3
2.568867783400000e-3 2.641387114310001e-3 2.716122277760000e-3 2.793148546539999e-3
2.872544058850000e-3 2.954389938160000e-3 3.038770418500000e-3 3.125772975320000e-3
3.215488462110000e-3 3.308011253150000e-3 3.403439392649999e-3 3.501874750450000e-3
3.603423184750000e-3 3.708194712080000e-3 3.816303684840000e-3 3.927868976790000e-3
4.043014176840000e-3 4.161867791480000e-3 4.284563456260000e-3 4.411240156730000e-3
4.542042459270000e-3 4.677120752220000e-3 4.816631497760000e-3 4.960737495120000e-3
5.109608155460000e-3 5.263419789080000e-3 5.422355905389999e-3 5.586607526320000e-3
5.756373513640000e-3 5.931860910880000e-3 6.113285300430000e-3 6.300871176549999e-3
6.494852334940000e-3 6.695472279490000e-3 6.902984647190000e-3 7.117653651690001e-3
7.339754546510000e-3 7.569574108710000e-3 7.807411143750000e-3 8.053577012570001e-3
8.308396181819999e-3 8.572206798110001e-3 8.845361287330000e-3 9.128226980120001e-3
9.421186764440002e-3 9.724639766529998e-3 1.003900206120000e-2 1.036470741270000e-2
1.070220804770000e-2 1.105197546090000e-2 1.141450125550000e-2 1.179029801930000e-2
1.217990023730000e-2 1.258386524440000e-2 1.300277421600000e-2 1.343723320230000e-2
1.388787420380000e-2 1.435535629290000e-2 1.484036678090000e-2 1.534362243320000e-2
1.586587073470000e-2 1.640789120570000e-2 1.697049677140000e-2 1.755453518690000e-2
1.816089051840000e-2 1.879048468290000e-2 1.944427904980000e-2 2.012327610340000e-2
2.082852117120000e-2 2.156110421810000e-2 2.232216170870000e-2 2.311287854100000e-2
2.393449005140000e-2 2.478828409490000e-2 2.567560320100000e-2 2.659784680840000e-2
2.755647357940000e-2 2.855300379710000e-2 2.958902184520000e-2 3.066617877520000e-2
3.178619495940000e-2 3.295086283380000e-2 3.416204973140000e-2 3.542170080680000e-2
3.673184205490000e-2 3.809458342330000e-2 3.951212202030000e-2 4.098674541849999e-2
4.252083505550000e-2 4.411686973150000e-2 4.577742920340000e-2 4.750519787630000e-2
4.930296859060000e-2 5.117364650520000e-2 5.312025307370000e-2 5.514593011390000e-2
5.725394396700000e-2 5.944768974440001e-2 6.173069565850000e-2 6.410662743469999e-2
6.657929279850000e-2 6.915264603460001e-2 7.183079261010000e-2 7.461799385710000e-2
7.751867170530000e-2 8.053741345760001e-2 8.367897659900001e-2 8.694829362780000e-2
9.035047689800001e-2 9.389082346009999e-2 9.757481988610001e-2 1.014081470640000e-1
1.053966849450000e-1 1.095465172220000e-1 1.138639359260000e-1 1.183554459160000e-1
1.230277692320000e-1 1.278878492980000e-1 1.329428549460000e-1 1.382001842210000e-1
1.436674679450000e-1 1.493525730160000e-1 1.552636053830000e-1 1.614089126790000e-1
1.677970864690000e-1 1.744369640630000e-1 1.813376298540000e-1 1.885084161330000e-1
1.959589033380000e-1 2.036989196670000e-1 2.117385400180000e-1 2.200880841870000e-1
2.287581142720000e-1 2.377594312070000e-1 2.471030703810000e-1 2.568002962460000e-1
2.668625958750000e-1 2.773016713720000e-1 2.881294310720000e-1 2.993579794530000e-1
3.109996056790000e-1 3.230667706940000e-1 3.355720927930000e-1 3.485283315780000e-1
3.619483702250000e-1 3.758451959770000e-1 3.902318787780000e-1 4.051215479780000e-1
4.205273670150000e-1 4.364625060130000e-1 4.529401122019999e-1 4.699732781190001e-1
4.875750074900000e-1 5.057581787589999e-1 5.245355062010000e-1 5.439194985619999e-1
5.639224152090000e-1 5.845562197370000e-1 6.058325310300000e-1 6.277625717679999e-1
6.503571143700000e-1 6.736264244170000e-1 6.975802015730000e-1 7.222275180580001e-1
7.475767547489999e-1 7.736355350010000e-1 8.004106562810001e-1 8.279080197690000e-1
8.561325580680000e-1 8.850881611969999e-1 9.147776010870000e-1 9.452024547930000e-1
9.763630266900000e-1 1.008258269930000e0 1.040885707450000e0 1.074241352950000e0
1.108319632070000e0 1.143113304290000e0 1.178613385870000e0 1.214809074390000e0
1.251687675200000e0 1.289234530410000e0 1.327432950870000e0 1.366264151670000e0
1.405707191670000e0 1.445738917690000e0 1.486333913900000e0 1.527464456840000e0
1.569100476910000e0 1.611209526570000e0 1.653756756060000e0 1.696704897060000e0
1.740014254710000e0 1.783642708730000e0 1.827545723880000e0 1.871676370190000e0
1.915985353510000e0 1.960421056560000e0 2.004929590770000e0 2.049454859230000e0
2.093938630850000e0 2.138320625890000e0 2.182538612870000e0 2.226528516890000e0
2.270224539260000e0 2.313559288320000e0 2.356463921340000e0 2.398868297080000e0
2.440701138920000e0 2.481890208070000e0 2.522362486560000e0 2.562044369610000e0
2.600861866810000e0 2.638740811850000e0 2.675607080050000e0 2.711386813460000e0
2.746006652740000e0 2.779393975540000e0 2.811477140580000e0 2.842185737070000e0
2.871450838670000e0 2.899205261500000e0 2.925383825410000e0 2.949923617790000e0
2.972764258920000e0 2.993848168010000e0 3.013120828730000e0 3.030531052870000e0
3.046031240630000e0 3.059577635880000e0 3.071130574120000e0 3.080654721070000e0
3.088119299210000e0 3.093498299250000e0 3.096770673360000e0 3.097920506600000e0
3.096937162520000e0 3.093815399000000e0 3.088555449700000e0 3.081163066650000e0
3.071649519090000e0 3.060031543740000e0 3.046331241710000e0 3.030575916930000e0
3.012797851540000e0 2.993034013430000e0 2.971325691550000e0 2.947718054780000e0
2.922259630160000e0 2.895001696990000e0 2.865997593180000e0 2.835301930700000e0
2.802969717420000e0 2.769055382810000e0 2.733611705780000e0 2.696688643680000e0
2.658332062410000e0 2.618589638410000e0 2.577532268260000e0 2.535232652010000e0
2.491756895340000e0 2.447163178580000e0 2.401500516650000e0 2.354816349340000e0
2.307186016050000e0 2.258693634590000e0 2.209424202000000e0 2.159463344360000e0
2.108897065700000e0 2.057811497050000e0 2.006292646420000e0 1.954426150820000e0
1.902297031060000e0 1.849989450500000e0 1.797586478330000e0 1.745169858750000e0
1.692819785940000e0 1.640614688770000e0 1.588631020510000e0 1.536943059300000e0
1.485622720730000e0 1.434739377220000e0 1.384359691830000e0 1.334547460280000e0
1.285363442590000e0 1.236865299170000e0 1.189107448130000e0 1.142140963470000e0
1.096013492290000e0 1.050769187920000e0 1.006448659060000e0 9.630889352760001e-1
9.207234488619999e-1 8.793820329790000e-1 8.390909359340000e-1 7.998728512450000e-1
7.617469630700000e-1 7.247290063840000e-1 6.888313412310000e-1 6.540630401880000e-1
6.204299881270000e-1 5.879349932209999e-1 5.565779080980001e-1 5.263557599360000e-1
4.972628882820000e-1 4.692910893330000e-1 4.424297654010000e-1 4.166660782960000e-1
3.919851053930000e-1 3.683699971770000e-1 3.458021351340000e-1 3.242612888980000e-1
3.037257716830000e-1 2.841725930930000e-1 2.655776084980000e-1 2.479156642900000e-1
2.311607384180000e-1 2.152860756950000e-1 2.002643175060000e-1 1.860676256000000e-1
1.726677997740000e-1 1.600363893150000e-1 1.481447981500000e-1 1.369643837200000e-1
1.264665496350000e-1 1.166228322170000e-1 1.074049810760000e-1 9.878503386650001e-2
9.073538540620001e-2 8.322885133110001e-2 7.623872646359999e-2 6.973883806700000e-2
6.370359414530000e-2 5.810802694170000e-2 5.292783177270000e-2 4.813940132580000e-2
4.371985554030000e-2 3.964706718160000e-2 3.589968321640000e-2 3.245714209660000e-2
2.929968706120000e-2 2.640837557100000e-2 2.376508500110000e-2 2.135251472610000e-2
1.915418474540000e-2 1.715443101090000e-2 1.533839763190000e-2 1.369202614790000e-2
1.220204207130000e-2 1.085593891570000e-2 9.641959932510000e-3 8.549077791119998e-3
7.566972437819999e-3 6.686007376130000e-3 5.897204608980000e-3 5.192218481830000e-3
4.563308660780000e-3 4.003312472940000e-3 3.505616826770000e-3 3.064129919350000e-3
2.673252924760000e-3 2.327851843760000e-3 2.023229680090000e-3 1.755099093030000e-3
1.519555659550000e-3 1.313051863330000e-3 1.132371911620000e-3 9.746074648159999e-4
8.371343484690000e-4 7.175903023879999e-4 6.138538076970001e-4 5.240240194720000e-4
4.464018205630000e-4 3.794720011310000e-4 3.218865584410000e-4 2.724491026310000e-4
2.301003463820000e-4 1.939046497270000e-4 1.630375856210000e-4 1.367744872210000e-4
1.144799341490000e-4 9.559813215369999e-5 7.964413862280001e-5 6.619588506890000e-5
5.488694713690000e-5 4.540001264040000e-5 3.746099862900000e-5 3.083376942300000e-5
2.531540886240000e-5 2.073200163310000e-5 1.693488040250000e-5 1.379729755550000e-5
1.121148252270000e-5 9.086047988659999e-6 7.343710615359999e-6 5.919294284660001e-6
4.757986213930000e-6 3.813818612250000e-6 3.048350793170000e-6 2.429528828730000e-6
1.930701902960000e-6 1.529776490160000e-6 1.208491339400000e-6 9.517979806560001e-7
7.473330844449999e-7 5.849704999859999e-7 4.564421725450001e-7 3.550183960220000e-7
2.752390017070000e-7 2.126881198280000e-7 1.638060837479999e-7 1.257328835270000e-7
9.617865613690002e-8 7.331845307910001e-8 5.569727392260000e-8 4.216188779089999e-8
3.180173048480000e-8 2.390038587940000e-8 1.789621192830000e-8 1.335050416950000e-8
9.921848812620002e-9 7.345539289370000e-9 5.417119153900001e-9 3.979274614280000e-9
2.911435502260000e-9 2.121557522180000e-9 1.539654153300000e-9 1.112726269050000e-9
8.008037197310001e-10 5.738678478840001e-10 4.094689526400000e-10 2.908896339720000e-10
2.057350618550000e-10 1.448556687700000e-10 1.015275291730000e-10 7.083159059800002e-11
4.918565299860001e-11 3.399313862110000e-11 2.338074054639999e-11 1.600338735970000e-11
1.089994727970000e-11 7.386990673790001e-12 4.980958263950002e-12 3.341424498299999e-12
2.229947655430001e-12 1.480377540640000e-12 9.775417346939999e-13 6.420265519020001e-13
4.193677683830000e-13 2.724147753090000e-13 1.759659552310000e-13 1.130205756180000e-13
7.217476980369999e-14 4.582264683890002e-14 2.892073761680000e-14 1.814430412980000e-14
1.131462643400000e-14 7.012555297580001e-15 4.319327101450000e-15 2.643796069880000e-15
1.607984571770000e-15 9.717420734689997e-16 5.834641740890000e-16 3.480651536880000e-16
2.062991458440000e-16 1.214967624530000e-16 7.111482196349998e-17 4.138899338270000e-17
2.397315713690000e-17 1.384201054460000e-17 7.991283413250000e-18 4.580027544100001e-18
2.605635599010000e-18 1.471338658420000e-18 8.245629932639998e-19 4.585699652830000e-19
2.530555016160000e-19 1.385516463600000e-19 7.525755830120005e-20 4.054967215480000e-20
2.167100675180000e-20 1.148630976540000e-20 6.037349035320000e-21 3.146519540750000e-21
1.625872434039999e-21 8.328509950989995e-22 4.228879333230000e-22 2.128198658720000e-22
1.061399967000000e-22 5.245375026430001e-23 2.568351792240000e-23 1.245839979140000e-23
5.986162062000002e-24 2.848794713770000e-24 1.342603245070000e-24 6.265486543110004e-25
2.894866455950000e-25 1.324080126550000e-25 5.994551496080001e-26 2.685961729040001e-26
1.190931939810000e-26 5.224691517600002e-27 2.267581072600000e-27 9.734969499840000e-28
4.133485075899999e-28 1.735592709040000e-28 7.205561433620000e-29 2.957430400070000e-29
1.199845418479999e-29 4.811014782919997e-30 1.906270337219999e-30 7.462831964079997e-31
2.886212899220002e-31 1.102533812550000e-31 4.159362901600000e-32 1.549404076720000e-32
5.698182322799998e-33 2.068576884780001e-33 7.411390660059998e-34 2.620285404570000e-34
9.139987072290001e-35 3.144973433409999e-35 1.067304143350000e-35 3.571771644830001e-36
1.178492878720000e-36 3.833015523420000e-37 1.228700710280000e-37 3.881183246759999e-38
1.207853572679999e-38 3.702670902460001e-39 1.117851677840000e-39 3.323058766600000e-40
9.725055841809999e-41 2.801307871889999e-41 7.940677752450000e-42 2.214596155050000e-42
6.075512164660001e-43 1.639202692110000e-43 4.348632720940003e-44 1.134098713420000e-44
2.906923716160001e-45 7.321608091239995e-46 1.811647151670001e-46 4.402892383389999e-47
1.050755442020000e-47 2.461868878740000e-48 5.661443816090001e-49 1.277575435230000e-49
2.828392937019999e-50 6.141610224899998e-51 1.307700329700000e-51 2.729672358180000e-52
5.584452474740001e-53 1.119460008900000e-53 2.198281026690000e-54 4.227579863790000e-55
7.960133147400004e-56 1.467078095100001e-56 2.645900793949999e-57 4.668344179429999e-58
8.055662070070005e-59 1.359149530030000e-59 2.241495679590000e-60 3.612340941250002e-61
5.687136453670000e-62 8.744298898209996e-63 1.312663796710000e-63 1.923305617599999e-64
2.749646335410002e-65 3.834466248829998e-66 5.214307716730000e-67 0.000000000000000e0
0.000000000000000e0 0.000000000000000e0 0.000000000000000e0 0.000000000000000e0
0.000000000000000e0 0.000000000000000e0 0.000000000000000e0 0.000000000000000e0
0.000000000000000e0 0.000000000000000e0 0.000000000000000e0 0.000000000000000e0
0.000000000000000e0 0.000000000000000e0 0.000000000000000e0 0.000000000000000e0
0.000000000000000e0 0.000000000000000e0 0.000000000000000e0 0.000000000000000e0
0.000000000000000e0 0.000000000000000e0 0.000000000000000e0 0.000000000000000e0
0.000000000000000e0 0.000000000000000e0 0.000000000000000e0 0.000000000000000e0
0.000000000000000e0 0.000000000000000e0 0.000000000000000e0 0.000000000000000e0
0.000000000000000e0
</PP_RHOATOM>
</UPF>
