87
	Energy:     919.3708259
Zn         0.03030       -0.06471       -0.04369
C          3.99022       -0.69214       -0.42912
C          4.06950        0.64813       -0.33479
C          2.68448       -1.09265        0.11210
C          2.80620        1.07767        0.24595
C          2.35251       -2.51442        0.31447
C          5.68439       -4.38608        0.68468
C          5.43371       -5.55778       -0.05429
C          4.69809       -3.39620        0.80711
C          4.18998       -5.71627       -0.67639
C          3.43945       -3.56395        0.19940
C          3.21151       -4.73432       -0.55663
C          2.47193        2.35265        0.48721
C          5.68685        4.43678        0.52740
C          5.27644        5.59517       -0.13331
C          4.78748        3.38471        0.72755
C          3.96450        5.70704       -0.59354
C          3.45658        3.47928        0.26714
C          3.05849        4.66144       -0.39443
C          1.08793       -2.87353        0.53317
C          1.08855        2.66918        0.85885
C          0.68796       -4.16282        0.84384
C          0.69230        3.90679        1.32756
C         -0.65325       -4.15863        0.86499
C         -0.65906        3.90654        1.32836
C         -1.05072       -2.86992        0.55953
C         -1.05325        2.66957        0.86011
C         -2.31365       -2.50271        0.36310
C         -3.29939       -4.73780       -0.36947
C         -3.43961       -3.51495        0.32593
C         -4.34787       -5.65841       -0.41305
C         -4.67066       -3.24119        0.95652
C         -5.55424       -5.37597        0.22586
C         -5.71681       -4.16854        0.90718
C         -2.43336        2.34953        0.48376
C         -3.09318        4.67196       -0.32661
C         -3.44701        3.45631        0.29205
C         -4.03890        5.68937       -0.49502
C         -4.77248        3.29821        0.74674
C         -5.35893        5.51829       -0.04423
C         -5.71461        4.31407        0.57946
C         -2.62299       -1.08890        0.11227
C         -2.74790        1.07662        0.22122
C         -3.91398       -0.69588       -0.46608
C         -3.99655        0.64151       -0.38600
N          1.98730       -0.06642        0.52650
N          0.02018       -2.04035        0.43975
N          0.01871        1.85514        0.65191
N         -1.92874       -0.06131        0.52063
H          5.97502        6.40763       -0.28721
H         -6.36534       -6.09134        0.18770
H          4.76737       -1.32331       -0.83719
H          4.91210        1.23279       -0.67394
H          1.29002       -5.04117        1.02607
H          1.31465        4.75491        1.57901
H         -1.25386       -5.03355        1.06336
H         -1.28132        4.75431        1.58015
H         -4.68024       -1.33340       -0.88557
H         -4.83161        1.22168       -0.75090
H          6.64062       -4.23993        1.17069
H          4.91136       -2.51030        1.39129
H          3.97152       -6.60182       -1.26042
H          2.27081       -4.88541       -1.07051
H          6.70348        4.35468        0.88965
H          5.12595        2.50591        1.26052
H          3.64774        6.60549       -1.10769
H          2.05065        4.76947       -0.77353
H         -2.38543       -4.97388       -0.89873
H         -4.22468       -6.59023       -0.95025
H         -4.81696       -2.31472        1.49688
H         -6.65577       -3.95014        1.39840
H         -2.08962        4.82985       -0.69880
H         -3.73954        6.60975       -0.98064
H         -5.07743        2.39045        1.25104
H         -6.72281        4.15799        0.94249
O         -1.51002       -0.16448        1.77163
H         -2.03653        0.17491        2.51149
O          1.56204       -0.18211        1.77434
H          2.07973        0.15894        2.51966
C         -6.36785        6.59283       -0.22006
O         -7.63396        6.41186        0.21657
H         -8.30548        7.10043        0.10952
O         -6.06053        7.64539       -0.76087
C          6.46210       -6.61985       -0.18412
O          6.18955       -7.74240       -0.88704
H          6.84108       -8.45194       -0.97791
O          7.55468       -6.49055        0.34826
